raw                                     
   1.00000000000000     
    20.0000000000000000    0.0000000000000000    0.0000000000000000
     0.0000000000000000   20.0000000000000000    0.0000000000000000
     0.0000000000000000    0.0000000000000000   20.0000000000000000
   C    H 
     2     4
Direct
  0.1491877769006461  0.1788445515924424  0.1108985226731208
  0.0943122250993514  0.1441554464075579  0.0961014793268801
  0.1685092244155985  0.2179926413296793  0.0780488841503431
  0.0749907765844025  0.1050073566703210  0.1289511178496507
  0.1775707702755518  0.1698616826613601  0.1565952788814275
  0.0659292387244428  0.1531383163386366  0.0504047191185659
 
  0.00000000E+00  0.00000000E+00  0.00000000E+00
  0.00000000E+00  0.00000000E+00  0.00000000E+00
  0.00000000E+00  0.00000000E+00  0.00000000E+00
  0.00000000E+00  0.00000000E+00  0.00000000E+00
  0.00000000E+00  0.00000000E+00  0.00000000E+00
  0.00000000E+00  0.00000000E+00  0.00000000E+00
