B4C B11C-CBC
0
G            # Gamma centered Monkhorst-Pack grids
7 7 7      # 
0.0 0.0 0.0  # No shift

