B4C B11C-CBC
0
G            # Gamma centered Monkhorst-Pack grids
6 6 6      # 
0.0 0.0 0.0  # No shift

