raw
1.0
       20.0000000000         0.0000000000         0.0000000000
        0.0000000000        20.0000000000         0.0000000000
        0.0000000000         0.0000000000        20.0000000000
    C    H
    2    4
Direct
     0.149250001         0.178929999         0.110849999
     0.094250001         0.144069999         0.096150003
     0.168650001         0.218099996         0.078060001
     0.074850000         0.104900002         0.128940001
     0.177630007         0.169900000         0.156609997
     0.065870002         0.153099999         0.050390001
