cubic diamond    comment line
1.0
        2.6162950993         0.0000000000         0.0000000000
        1.3081475496         2.2657780198         0.0000000000
        1.3081475496         0.7552593399         2.1361960032
    C
    2
Cartesian
     0.000000000         0.000000000         0.000000000
     1.308147550         0.755259340         0.534049001
