methane-low                             
   1.01315940400000     
    11.7079000473000008    0.0000000000000000    0.0000000000000000
     0.0000000000000000    8.1892995834000004    0.0000000000000000
     0.0000000000000000    0.0000000000000000    8.1842002868999995
   H    C 
    64    16
Direct
  0.0755359571018594  0.8117608682740529  0.2142024263995045
  0.9244640648981355  0.1882391317259473  0.7857976026004939
  0.9244640648981355  0.6882391317259471  0.7142023973995061
  0.0755359571018594  0.3117608682740529  0.2857975736004955
  0.9244640648981355  0.3117608682740529  0.2857975736004955
  0.0755359571018594  0.6882391317259471  0.7142023973995061
  0.0755359571018594  0.1882391317259473  0.7857976026004939
  0.9244640648981355  0.8117608682740529  0.2142024263995045
  0.5755359351018645  0.3117608682740529  0.2142024263995045
  0.4244640358981366  0.6882391317259471  0.7857976026004939
  0.4244640358981366  0.1882391317259473  0.7142023973995061
  0.5755359351018645  0.8117608682740529  0.2857975736004955
  0.4244640358981366  0.8117608682740529  0.2857975736004955
  0.5755359351018645  0.1882391317259473  0.7142023973995061
  0.5755359351018645  0.6882391317259471  0.7857976026004939
  0.4244640358981366  0.3117608682740529  0.2142024263995045
  0.8111461216078188  0.5836416607823682  0.9321658800561614
  0.1888538783921810  0.4163583392176316  0.0678341199438385
  0.1888538783921810  0.9163583392176318  0.4321658800561615
  0.8111461216078188  0.0836416607823684  0.5678341199438386
  0.1888538783921810  0.0836416607823684  0.5678341199438386
  0.8111461216078188  0.9163583392176318  0.4321658800561615
  0.8111461216078188  0.4163583392176316  0.0678341199438385
  0.1888538783921810  0.5836416607823682  0.9321658800561614
  0.3111461216078190  0.0836416607823684  0.9321658800561614
  0.6888538783921812  0.9163583392176318  0.0678341199438385
  0.6888538783921812  0.4163583392176316  0.4321658800561615
  0.3111461216078189  0.5836416607823682  0.5678341199438386
  0.6888538783921812  0.5836416607823682  0.5678341199438386
  0.3111461216078190  0.4163583392176316  0.4321658800561615
  0.3111461216078189  0.9163583392176318  0.0678341199438385
  0.6888538783921812  0.0836416607823684  0.9321658800561614
  0.7044137756681664  0.5681791306020282  0.0836179768201735
  0.2955862243318338  0.4318208693979715  0.9163820231798263
  0.2955862243318338  0.9318208693979718  0.5836179768201737
  0.7044137756681664  0.0681791306020284  0.4163820231798265
  0.2955862243318338  0.0681791306020284  0.4163820231798265
  0.7044137756681664  0.9318208693979718  0.5836179768201737
  0.7044137756681664  0.4318208693979715  0.9163820231798263
  0.2955862243318338  0.5681791306020282  0.0836179768201735
  0.2044137756681660  0.0681791306020284  0.0836179768201735
  0.7955862243318336  0.9318208693979718  0.9163820231798263
  0.7955862243318336  0.4318208693979715  0.5836179768201737
  0.2044137756681660  0.5681791306020282  0.4163820231798265
  0.7955862243318336  0.5681791306020282  0.4163820231798265
  0.2044137756681660  0.4318208693979715  0.5836179768201737
  0.2044137756681660  0.9318208693979718  0.9163820231798263
  0.7955862243318336  0.0681791306020284  0.0836179768201735
  0.0000000000000000  0.6264613989902592  0.1897611219597982
  0.0000000000000000  0.3735386010097408  0.8102388480401993
  0.0000000000000000  0.8735386010097408  0.6897611519598007
  0.0000000000000000  0.1264613989902592  0.3102388780402016
  0.5000000000000000  0.1264613989902592  0.1897611219597982
  0.5000000000000000  0.8735386010097408  0.8102388480401993
  0.5000000000000000  0.3735386010097408  0.6897611519598007
  0.5000000000000000  0.6264613989902592  0.3102388780402016
  0.0000000000000000  0.2734270967030381  0.4680947518197557
  0.0000000000000000  0.7265729032969614  0.5319052481802439
  0.0000000000000000  0.2265729032969620 -0.0319052481802441
  0.0000000000000000  0.7734270967030386  0.0319052481802444
  0.5000000000000000  0.7734270967030386  0.4680947518197557
  0.5000000000000000  0.2265729032969620  0.5319052481802439
  0.5000000000000000  0.7265729032969614 -0.0319052481802441
  0.5000000000000000  0.2734270967030381  0.0319052481802444
  0.0000000000000000  0.2557104255565033  0.3372035586992973
  0.0000000000000000  0.7442895744434970  0.6627964263007049
  0.0000000000000000  0.2442895744434968  0.8372035736992951
  0.0000000000000000  0.7557104255565030  0.1627964263007050
  0.5000000000000000  0.7557104255565030  0.3372035586992973
  0.5000000000000000  0.2442895744434968  0.6627964263007049
  0.5000000000000000  0.7442895744434970  0.8372035736992951
  0.5000000000000000  0.2557104255565033  0.1627964263007050
  0.7576974290794927  0.5000000000000000 -0.0000000000000000
  0.2423025709205076  0.5000000000000000 -0.0000000000000000
  0.2423025709205076 -0.0000000000000000  0.5000000000000000
  0.7576974290794927 -0.0000000000000000  0.5000000000000000
  0.2576974290794923 -0.0000000000000000 -0.0000000000000000
  0.7423025709205073 -0.0000000000000000 -0.0000000000000000
  0.7423025709205073  0.5000000000000000  0.5000000000000000
  0.2576974290794923  0.5000000000000000  0.5000000000000000
 
  0.00000000E+00  0.00000000E+00  0.00000000E+00
  0.00000000E+00  0.00000000E+00  0.00000000E+00
  0.00000000E+00  0.00000000E+00  0.00000000E+00
  0.00000000E+00  0.00000000E+00  0.00000000E+00
  0.00000000E+00  0.00000000E+00  0.00000000E+00
  0.00000000E+00  0.00000000E+00  0.00000000E+00
  0.00000000E+00  0.00000000E+00  0.00000000E+00
  0.00000000E+00  0.00000000E+00  0.00000000E+00
  0.00000000E+00  0.00000000E+00  0.00000000E+00
  0.00000000E+00  0.00000000E+00  0.00000000E+00
  0.00000000E+00  0.00000000E+00  0.00000000E+00
  0.00000000E+00  0.00000000E+00  0.00000000E+00
  0.00000000E+00  0.00000000E+00  0.00000000E+00
  0.00000000E+00  0.00000000E+00  0.00000000E+00
  0.00000000E+00  0.00000000E+00  0.00000000E+00
  0.00000000E+00  0.00000000E+00  0.00000000E+00
  0.00000000E+00  0.00000000E+00  0.00000000E+00
  0.00000000E+00  0.00000000E+00  0.00000000E+00
  0.00000000E+00  0.00000000E+00  0.00000000E+00
  0.00000000E+00  0.00000000E+00  0.00000000E+00
  0.00000000E+00  0.00000000E+00  0.00000000E+00
  0.00000000E+00  0.00000000E+00  0.00000000E+00
  0.00000000E+00  0.00000000E+00  0.00000000E+00
  0.00000000E+00  0.00000000E+00  0.00000000E+00
  0.00000000E+00  0.00000000E+00  0.00000000E+00
  0.00000000E+00  0.00000000E+00  0.00000000E+00
  0.00000000E+00  0.00000000E+00  0.00000000E+00
  0.00000000E+00  0.00000000E+00  0.00000000E+00
  0.00000000E+00  0.00000000E+00  0.00000000E+00
  0.00000000E+00  0.00000000E+00  0.00000000E+00
  0.00000000E+00  0.00000000E+00  0.00000000E+00
  0.00000000E+00  0.00000000E+00  0.00000000E+00
  0.00000000E+00  0.00000000E+00  0.00000000E+00
  0.00000000E+00  0.00000000E+00  0.00000000E+00
  0.00000000E+00  0.00000000E+00  0.00000000E+00
  0.00000000E+00  0.00000000E+00  0.00000000E+00
  0.00000000E+00  0.00000000E+00  0.00000000E+00
  0.00000000E+00  0.00000000E+00  0.00000000E+00
  0.00000000E+00  0.00000000E+00  0.00000000E+00
  0.00000000E+00  0.00000000E+00  0.00000000E+00
  0.00000000E+00  0.00000000E+00  0.00000000E+00
  0.00000000E+00  0.00000000E+00  0.00000000E+00
  0.00000000E+00  0.00000000E+00  0.00000000E+00
  0.00000000E+00  0.00000000E+00  0.00000000E+00
  0.00000000E+00  0.00000000E+00  0.00000000E+00
  0.00000000E+00  0.00000000E+00  0.00000000E+00
  0.00000000E+00  0.00000000E+00  0.00000000E+00
  0.00000000E+00  0.00000000E+00  0.00000000E+00
  0.00000000E+00  0.00000000E+00  0.00000000E+00
  0.00000000E+00  0.00000000E+00  0.00000000E+00
  0.00000000E+00  0.00000000E+00  0.00000000E+00
  0.00000000E+00  0.00000000E+00  0.00000000E+00
  0.00000000E+00  0.00000000E+00  0.00000000E+00
  0.00000000E+00  0.00000000E+00  0.00000000E+00
  0.00000000E+00  0.00000000E+00  0.00000000E+00
  0.00000000E+00  0.00000000E+00  0.00000000E+00
  0.00000000E+00  0.00000000E+00  0.00000000E+00
  0.00000000E+00  0.00000000E+00  0.00000000E+00
  0.00000000E+00  0.00000000E+00  0.00000000E+00
  0.00000000E+00  0.00000000E+00  0.00000000E+00
  0.00000000E+00  0.00000000E+00  0.00000000E+00
  0.00000000E+00  0.00000000E+00  0.00000000E+00
  0.00000000E+00  0.00000000E+00  0.00000000E+00
  0.00000000E+00  0.00000000E+00  0.00000000E+00
  0.00000000E+00  0.00000000E+00  0.00000000E+00
  0.00000000E+00  0.00000000E+00  0.00000000E+00
  0.00000000E+00  0.00000000E+00  0.00000000E+00
  0.00000000E+00  0.00000000E+00  0.00000000E+00
  0.00000000E+00  0.00000000E+00  0.00000000E+00
  0.00000000E+00  0.00000000E+00  0.00000000E+00
  0.00000000E+00  0.00000000E+00  0.00000000E+00
  0.00000000E+00  0.00000000E+00  0.00000000E+00
  0.00000000E+00  0.00000000E+00  0.00000000E+00
  0.00000000E+00  0.00000000E+00  0.00000000E+00
  0.00000000E+00  0.00000000E+00  0.00000000E+00
  0.00000000E+00  0.00000000E+00  0.00000000E+00
  0.00000000E+00  0.00000000E+00  0.00000000E+00
  0.00000000E+00  0.00000000E+00  0.00000000E+00
  0.00000000E+00  0.00000000E+00  0.00000000E+00
  0.00000000E+00  0.00000000E+00  0.00000000E+00
