methane-low                             
   1.01315940400000     
    11.7079000473000008    0.0000000000000000    0.0000000000000000
     0.0000000000000000    8.1892995834000004    0.0000000000000000
     0.0000000000000000    0.0000000000000000    8.1842002868999995
   H    C 
    64    16
Direct
  0.0758459350269639  0.7948227230503224  0.1579966414837383
  0.9241540869730308  0.2051772769496774  0.8420033875162606
  0.9241540869730308  0.7051772769496776  0.6579966124837394
  0.0758459350269639  0.2948227230503227  0.3420033585162617
  0.9241540869730308  0.2948227230503227  0.3420033585162617
  0.0758459350269639  0.7051772769496776  0.6579966124837394
  0.0758459350269639  0.2051772769496774  0.8420033875162606
  0.9241540869730308  0.7948227230503224  0.1579966414837383
  0.5758459130269692  0.2948227230503226  0.1579966414837383
  0.4241540579730319  0.7051772769496776  0.8420033875162606
  0.4241540579730319  0.2051772769496774  0.6579966124837394
  0.5758459130269692  0.7948227230503224  0.3420033585162617
  0.4241540579730319  0.7948227230503224  0.3420033585162617
  0.5758459130269692  0.2051772769496774  0.6579966124837394
  0.5758459130269692  0.7051772769496776  0.8420033875162606
  0.4241540579730319  0.2948227230503227  0.1579966414837383
  0.8035233365296212  0.5830760837971812  0.9306212779919852
  0.1964766634703790  0.4169239162028188  0.0693787220080149
  0.1964766634703790  0.9169239162028188  0.4306212779919851
  0.8035233365296212  0.0830760837971812  0.5693787220080148
  0.1964766634703790  0.0830760837971812  0.5693787220080148
  0.8035233365296212  0.9169239162028188  0.4306212779919851
  0.8035233365296212  0.4169239162028188  0.0693787220080149
  0.1964766634703790  0.5830760837971812  0.9306212779919852
  0.3035233365296210  0.0830760837971812  0.9306212779919852
  0.6964766634703788  0.9169239162028188  0.0693787220080149
  0.6964766634703788  0.4169239162028188  0.4306212779919851
  0.3035233365296210  0.5830760837971812  0.5693787220080148
  0.6964766634703788  0.5830760837971812  0.5693787220080148
  0.3035233365296210  0.4169239162028188  0.4306212779919851
  0.3035233365296210  0.9169239162028188  0.0693787220080149
  0.6964766634703788  0.0830760837971812  0.9306212779919852
  0.6963793555334532  0.5693670300478401  0.0832905264913039
  0.3036206444665466  0.4306329699521602  0.9167094735086964
  0.3036206444665466  0.9306329699521599  0.5832905264913036
  0.6963793555334532  0.0693670300478399  0.4167094735086960
  0.3036206444665466  0.0693670300478398  0.4167094735086960
  0.6963793555334532  0.9306329699521599  0.5832905264913036
  0.6963793555334532  0.4306329699521602  0.9167094735086964
  0.3036206444665466  0.5693670300478401  0.0832905264913039
  0.1963793555334534  0.0693670300478398  0.0832905264913039
  0.8036206444665468  0.9306329699521599  0.9167094735086964
  0.8036206444665468  0.4306329699521603  0.5832905264913036
  0.1963793555334534  0.5693670300478401  0.4167094735086960
  0.8036206444665468  0.5693670300478401  0.4167094735086960
  0.1963793555334534  0.4306329699521602  0.5832905264913036
  0.1963793555334534  0.9306329699521599  0.9167094735086964
  0.8036206444665468  0.0693670300478398  0.0832905264913039
 -0.0000000000000000  0.6072413430731252  0.1598716295732156
 -0.0000000000000000  0.3927586569268747  0.8401283404267821
 -0.0000000000000000  0.8927586569268748  0.6598716595732179
 -0.0000000000000000  0.1072413430731253  0.3401283704267843
  0.5000000000000000  0.1072413430731253  0.1598716295732156
  0.5000000000000000  0.8927586569268748  0.8401283404267821
  0.5000000000000000  0.3927586569268747  0.6598716595732179
  0.5000000000000000  0.6072413430731252  0.3401283704267843
 -0.0000000000000000  0.2657464117300610  0.6643333396610720
 -0.0000000000000000  0.7342535882699390 -0.6643333396610718
 -0.0000000000000000  0.2342535882699389  0.1643333396610717
 -0.0000000000000000 -0.2342535882699390 -0.1643333396610718
  0.5000000000000000 -0.2342535882699391  0.6643333396610720
  0.5000000000000000  0.2342535882699392 -0.6643333396610718
  0.5000000000000000  0.7342535882699389  0.1643333396610717
  0.5000000000000000  0.2657464117300611 -0.1643333396610718
 -0.0000000000000000  0.2328670306566002 -0.7027995262604266
 -0.0000000000000000  0.7671329693433996  0.7027995112604289
 -0.0000000000000000  0.2671329693434000 -0.2027995112604287
 -0.0000000000000000 -0.2671329693433998  0.2027995112604287
  0.5000000000000000 -0.2671329693433998 -0.7027995262604265
  0.5000000000000000  0.2671329693433997  0.7027995112604289
  0.5000000000000000  0.7671329693433996 -0.2027995112604290
  0.5000000000000000  0.2328670306566002  0.2027995112604287
  0.7498937923793666  0.5000000000000000  0.0000000000000000
  0.2501062076206336  0.5000000000000000  0.0000000000000000
  0.2501062076206336 -0.0000000000000000  0.5000000000000000
  0.7498937923793666 -0.0000000000000000  0.5000000000000000
  0.2498937923793664 -0.0000000000000000  0.0000000000000000
  0.7501062076206334 -0.0000000000000000  0.0000000000000000
  0.7501062076206334  0.5000000000000000  0.5000000000000000
  0.2498937923793664  0.5000000000000000  0.5000000000000000
 
  0.00000000E+00  0.00000000E+00  0.00000000E+00
  0.00000000E+00  0.00000000E+00  0.00000000E+00
  0.00000000E+00  0.00000000E+00  0.00000000E+00
  0.00000000E+00  0.00000000E+00  0.00000000E+00
  0.00000000E+00  0.00000000E+00  0.00000000E+00
  0.00000000E+00  0.00000000E+00  0.00000000E+00
  0.00000000E+00  0.00000000E+00  0.00000000E+00
  0.00000000E+00  0.00000000E+00  0.00000000E+00
  0.00000000E+00  0.00000000E+00  0.00000000E+00
  0.00000000E+00  0.00000000E+00  0.00000000E+00
  0.00000000E+00  0.00000000E+00  0.00000000E+00
  0.00000000E+00  0.00000000E+00  0.00000000E+00
  0.00000000E+00  0.00000000E+00  0.00000000E+00
  0.00000000E+00  0.00000000E+00  0.00000000E+00
  0.00000000E+00  0.00000000E+00  0.00000000E+00
  0.00000000E+00  0.00000000E+00  0.00000000E+00
  0.00000000E+00  0.00000000E+00  0.00000000E+00
  0.00000000E+00  0.00000000E+00  0.00000000E+00
  0.00000000E+00  0.00000000E+00  0.00000000E+00
  0.00000000E+00  0.00000000E+00  0.00000000E+00
  0.00000000E+00  0.00000000E+00  0.00000000E+00
  0.00000000E+00  0.00000000E+00  0.00000000E+00
  0.00000000E+00  0.00000000E+00  0.00000000E+00
  0.00000000E+00  0.00000000E+00  0.00000000E+00
  0.00000000E+00  0.00000000E+00  0.00000000E+00
  0.00000000E+00  0.00000000E+00  0.00000000E+00
  0.00000000E+00  0.00000000E+00  0.00000000E+00
  0.00000000E+00  0.00000000E+00  0.00000000E+00
  0.00000000E+00  0.00000000E+00  0.00000000E+00
  0.00000000E+00  0.00000000E+00  0.00000000E+00
  0.00000000E+00  0.00000000E+00  0.00000000E+00
  0.00000000E+00  0.00000000E+00  0.00000000E+00
  0.00000000E+00  0.00000000E+00  0.00000000E+00
  0.00000000E+00  0.00000000E+00  0.00000000E+00
  0.00000000E+00  0.00000000E+00  0.00000000E+00
  0.00000000E+00  0.00000000E+00  0.00000000E+00
  0.00000000E+00  0.00000000E+00  0.00000000E+00
  0.00000000E+00  0.00000000E+00  0.00000000E+00
  0.00000000E+00  0.00000000E+00  0.00000000E+00
  0.00000000E+00  0.00000000E+00  0.00000000E+00
  0.00000000E+00  0.00000000E+00  0.00000000E+00
  0.00000000E+00  0.00000000E+00  0.00000000E+00
  0.00000000E+00  0.00000000E+00  0.00000000E+00
  0.00000000E+00  0.00000000E+00  0.00000000E+00
  0.00000000E+00  0.00000000E+00  0.00000000E+00
  0.00000000E+00  0.00000000E+00  0.00000000E+00
  0.00000000E+00  0.00000000E+00  0.00000000E+00
  0.00000000E+00  0.00000000E+00  0.00000000E+00
  0.00000000E+00  0.00000000E+00  0.00000000E+00
  0.00000000E+00  0.00000000E+00  0.00000000E+00
  0.00000000E+00  0.00000000E+00  0.00000000E+00
  0.00000000E+00  0.00000000E+00  0.00000000E+00
  0.00000000E+00  0.00000000E+00  0.00000000E+00
  0.00000000E+00  0.00000000E+00  0.00000000E+00
  0.00000000E+00  0.00000000E+00  0.00000000E+00
  0.00000000E+00  0.00000000E+00  0.00000000E+00
  0.00000000E+00  0.00000000E+00  0.00000000E+00
  0.00000000E+00  0.00000000E+00  0.00000000E+00
  0.00000000E+00  0.00000000E+00  0.00000000E+00
  0.00000000E+00  0.00000000E+00  0.00000000E+00
  0.00000000E+00  0.00000000E+00  0.00000000E+00
  0.00000000E+00  0.00000000E+00  0.00000000E+00
  0.00000000E+00  0.00000000E+00  0.00000000E+00
  0.00000000E+00  0.00000000E+00  0.00000000E+00
  0.00000000E+00  0.00000000E+00  0.00000000E+00
  0.00000000E+00  0.00000000E+00  0.00000000E+00
  0.00000000E+00  0.00000000E+00  0.00000000E+00
  0.00000000E+00  0.00000000E+00  0.00000000E+00
  0.00000000E+00  0.00000000E+00  0.00000000E+00
  0.00000000E+00  0.00000000E+00  0.00000000E+00
  0.00000000E+00  0.00000000E+00  0.00000000E+00
  0.00000000E+00  0.00000000E+00  0.00000000E+00
  0.00000000E+00  0.00000000E+00  0.00000000E+00
  0.00000000E+00  0.00000000E+00  0.00000000E+00
  0.00000000E+00  0.00000000E+00  0.00000000E+00
  0.00000000E+00  0.00000000E+00  0.00000000E+00
  0.00000000E+00  0.00000000E+00  0.00000000E+00
  0.00000000E+00  0.00000000E+00  0.00000000E+00
  0.00000000E+00  0.00000000E+00  0.00000000E+00
  0.00000000E+00  0.00000000E+00  0.00000000E+00
