methane-low                             
   1.02598556800000     
    11.7079000473000008    0.0000000000000000    0.0000000000000000
     0.0000000000000000    8.1892995834000004    0.0000000000000000
     0.0000000000000000    0.0000000000000000    8.1842002868999995
   H    C 
    64    16
Direct
  0.0744966985488573  0.7783712195585991  0.2613076484790806
  0.9255033234511374  0.2216287804414009  0.7386923805209182
  0.9255033234511374  0.7216287804414009  0.7613076194790818
  0.0744966985488573  0.2783712195585991  0.2386923515209194
  0.9255033234511374  0.2783712195585991  0.2386923515209194
  0.0744966985488573  0.7216287804414009  0.7613076194790818
  0.0744966985488573  0.2216287804414009  0.7386923805209182
  0.9255033234511374  0.7783712195585991  0.2613076484790806
  0.5744966765488626  0.2783712195585991  0.2613076484790806
  0.4255032944511385  0.7216287804414009  0.7386923805209182
  0.4255032944511385  0.2216287804414009  0.7613076194790818
  0.5744966765488626  0.7783712195585991  0.2386923515209194
  0.4255032944511385  0.7783712195585991  0.2386923515209194
  0.5744966765488626  0.2216287804414009  0.7613076194790818
  0.5744966765488626  0.7216287804414009  0.7386923805209182
  0.4255032944511385  0.2783712195585991  0.2613076484790806
  0.8024419737351398  0.5817552902108456  0.9320004676711389
  0.1975580262648602  0.4182447097891545  0.0679995323288612
  0.1975580262648602  0.9182447097891544  0.4320004676711388
  0.8024419737351398  0.0817552902108456  0.5679995323288611
  0.1975580262648602  0.0817552902108456  0.5679995323288611
  0.8024419737351398  0.9182447097891544  0.4320004676711388
  0.8024419737351398  0.4182447097891545  0.0679995323288612
  0.1975580262648602  0.5817552902108456  0.9320004676711389
  0.3024419737351398  0.0817552902108456  0.9320004676711389
  0.6975580262648602  0.9182447097891544  0.0679995323288612
  0.6975580262648602  0.4182447097891545  0.4320004676711388
  0.3024419737351398  0.5817552902108456  0.5679995323288611
  0.6975580262648602  0.5817552902108456  0.5679995323288611
  0.3024419737351398  0.4182447097891545  0.4320004676711388
  0.3024419737351398  0.9182447097891544  0.0679995323288612
  0.6975580262648602  0.0817552902108456  0.9320004676711389
  0.6970731163624166  0.5680870223236448  0.0819459054219794
  0.3029268836375834  0.4319129776763552  0.9180540945780277
  0.3029268836375834  0.9319129776763552  0.5819459054219723
  0.6970731163624166  0.0680870223236520  0.4180540945780206
  0.3029268836375834  0.0680870223236520  0.4180540945780206
  0.6970731163624166  0.9319129776763552  0.5819459054219723
  0.6970731163624166  0.4319129776763552  0.9180540945780277
  0.3029268836375834  0.5680870223236448  0.0819459054219794
  0.1970731163624166  0.0680870223236520  0.0819459054219794
  0.8029268836375834  0.9319129776763552  0.9180540945780277
  0.8029268836375834  0.4319129776763552  0.5819459054219723
  0.1970731163624166  0.5680870223236448  0.4180540945780206
  0.8029268836375834  0.5680870223236448  0.4180540945780206
  0.1970731163624166  0.4319129776763552  0.5819459054219723
  0.1970731163624166  0.9319129776763552  0.9180540945780277
  0.8029268836375834  0.0680870223236520  0.0819459054219794
  0.0000000000000000  0.6022419662489484  0.2065414262396812
  0.0000000000000000  0.3977580337510515  0.7934585437603163
  0.0000000000000000  0.8977580337510516  0.7065414562396837
  0.0000000000000000  0.1022419662489485  0.2934585737603188
  0.5000000000000000  0.1022419662489485  0.2065414262396812
  0.5000000000000000  0.8977580337510516  0.7934585437603163
  0.5000000000000000  0.3977580337510515  0.7065414562396837
  0.5000000000000000  0.6022419662489484  0.2934585737603188
  0.0000000000000000  0.2283196362237895  0.9228681367279934
  0.0000000000000000  0.7716803637762104  0.0771318632720066
  0.0000000000000000  0.2716803637762105  0.4228681367279934
  0.0000000000000000  0.7283196362237896  0.5771318632720066
  0.5000000000000000  0.7283196362237896  0.9228681367279934
  0.5000000000000000  0.2716803637762105  0.0771318632720066
  0.5000000000000000  0.7716803637762104  0.4228681367279934
  0.5000000000000000  0.2283196362237895  0.5771318632720066
  0.0000000000000000  0.2325319279998733  0.2984105250197183
  0.0000000000000000  0.7674680720001267  0.7015894599802840
  0.0000000000000000  0.2674680720001267  0.7984105400197160
  0.0000000000000000  0.7325319279998733  0.2015894599802840
  0.5000000000000000  0.7325319279998733  0.2984105250197183
  0.5000000000000000  0.2674680720001267  0.7015894599802840
  0.5000000000000000  0.7674680720001267  0.7984105400197160
  0.5000000000000000  0.2325319279998733  0.2015894599802840
  0.7496634573435967  0.5000000000000000 -0.0000000000000000
  0.2503365426564032  0.5000000000000000 -0.0000000000000000
  0.2503365426564032  0.0000000000000000  0.5000000000000000
  0.7496634573435967  0.0000000000000000  0.5000000000000000
  0.2496634573435968  0.0000000000000000 -0.0000000000000000
  0.7503365426564033  0.0000000000000000 -0.0000000000000000
  0.7503365426564033  0.5000000000000000  0.5000000000000000
  0.2496634573435968  0.5000000000000000  0.5000000000000000
 
  0.00000000E+00  0.00000000E+00  0.00000000E+00
  0.00000000E+00  0.00000000E+00  0.00000000E+00
  0.00000000E+00  0.00000000E+00  0.00000000E+00
  0.00000000E+00  0.00000000E+00  0.00000000E+00
  0.00000000E+00  0.00000000E+00  0.00000000E+00
  0.00000000E+00  0.00000000E+00  0.00000000E+00
  0.00000000E+00  0.00000000E+00  0.00000000E+00
  0.00000000E+00  0.00000000E+00  0.00000000E+00
  0.00000000E+00  0.00000000E+00  0.00000000E+00
  0.00000000E+00  0.00000000E+00  0.00000000E+00
  0.00000000E+00  0.00000000E+00  0.00000000E+00
  0.00000000E+00  0.00000000E+00  0.00000000E+00
  0.00000000E+00  0.00000000E+00  0.00000000E+00
  0.00000000E+00  0.00000000E+00  0.00000000E+00
  0.00000000E+00  0.00000000E+00  0.00000000E+00
  0.00000000E+00  0.00000000E+00  0.00000000E+00
  0.00000000E+00  0.00000000E+00  0.00000000E+00
  0.00000000E+00  0.00000000E+00  0.00000000E+00
  0.00000000E+00  0.00000000E+00  0.00000000E+00
  0.00000000E+00  0.00000000E+00  0.00000000E+00
  0.00000000E+00  0.00000000E+00  0.00000000E+00
  0.00000000E+00  0.00000000E+00  0.00000000E+00
  0.00000000E+00  0.00000000E+00  0.00000000E+00
  0.00000000E+00  0.00000000E+00  0.00000000E+00
  0.00000000E+00  0.00000000E+00  0.00000000E+00
  0.00000000E+00  0.00000000E+00  0.00000000E+00
  0.00000000E+00  0.00000000E+00  0.00000000E+00
  0.00000000E+00  0.00000000E+00  0.00000000E+00
  0.00000000E+00  0.00000000E+00  0.00000000E+00
  0.00000000E+00  0.00000000E+00  0.00000000E+00
  0.00000000E+00  0.00000000E+00  0.00000000E+00
  0.00000000E+00  0.00000000E+00  0.00000000E+00
  0.00000000E+00  0.00000000E+00  0.00000000E+00
  0.00000000E+00  0.00000000E+00  0.00000000E+00
  0.00000000E+00  0.00000000E+00  0.00000000E+00
  0.00000000E+00  0.00000000E+00  0.00000000E+00
  0.00000000E+00  0.00000000E+00  0.00000000E+00
  0.00000000E+00  0.00000000E+00  0.00000000E+00
  0.00000000E+00  0.00000000E+00  0.00000000E+00
  0.00000000E+00  0.00000000E+00  0.00000000E+00
  0.00000000E+00  0.00000000E+00  0.00000000E+00
  0.00000000E+00  0.00000000E+00  0.00000000E+00
  0.00000000E+00  0.00000000E+00  0.00000000E+00
  0.00000000E+00  0.00000000E+00  0.00000000E+00
  0.00000000E+00  0.00000000E+00  0.00000000E+00
  0.00000000E+00  0.00000000E+00  0.00000000E+00
  0.00000000E+00  0.00000000E+00  0.00000000E+00
  0.00000000E+00  0.00000000E+00  0.00000000E+00
  0.00000000E+00  0.00000000E+00  0.00000000E+00
  0.00000000E+00  0.00000000E+00  0.00000000E+00
  0.00000000E+00  0.00000000E+00  0.00000000E+00
  0.00000000E+00  0.00000000E+00  0.00000000E+00
  0.00000000E+00  0.00000000E+00  0.00000000E+00
  0.00000000E+00  0.00000000E+00  0.00000000E+00
  0.00000000E+00  0.00000000E+00  0.00000000E+00
  0.00000000E+00  0.00000000E+00  0.00000000E+00
  0.00000000E+00  0.00000000E+00  0.00000000E+00
  0.00000000E+00  0.00000000E+00  0.00000000E+00
  0.00000000E+00  0.00000000E+00  0.00000000E+00
  0.00000000E+00  0.00000000E+00  0.00000000E+00
  0.00000000E+00  0.00000000E+00  0.00000000E+00
  0.00000000E+00  0.00000000E+00  0.00000000E+00
  0.00000000E+00  0.00000000E+00  0.00000000E+00
  0.00000000E+00  0.00000000E+00  0.00000000E+00
  0.00000000E+00  0.00000000E+00  0.00000000E+00
  0.00000000E+00  0.00000000E+00  0.00000000E+00
  0.00000000E+00  0.00000000E+00  0.00000000E+00
  0.00000000E+00  0.00000000E+00  0.00000000E+00
  0.00000000E+00  0.00000000E+00  0.00000000E+00
  0.00000000E+00  0.00000000E+00  0.00000000E+00
  0.00000000E+00  0.00000000E+00  0.00000000E+00
  0.00000000E+00  0.00000000E+00  0.00000000E+00
  0.00000000E+00  0.00000000E+00  0.00000000E+00
  0.00000000E+00  0.00000000E+00  0.00000000E+00
  0.00000000E+00  0.00000000E+00  0.00000000E+00
  0.00000000E+00  0.00000000E+00  0.00000000E+00
  0.00000000E+00  0.00000000E+00  0.00000000E+00
  0.00000000E+00  0.00000000E+00  0.00000000E+00
  0.00000000E+00  0.00000000E+00  0.00000000E+00
  0.00000000E+00  0.00000000E+00  0.00000000E+00
