CIF file                                
   1.00000000000000     
     2.4661411108786422    0.0029395190993480    0.0000000000000000
    -1.2305248571743250    2.1372106108455267    0.0000000000000000
     0.0000000000000000    0.0000000000000000    7.2765309050000004
   C 
     4
Direct
  0.9995026958960536  0.0004973504435542  0.2500000000000000
  0.0004973504435542  0.9995026958960536  0.7500000000000000
  0.3329307426297736  0.6670692400306175  0.2500000000000000
  0.6670692400306175  0.3329307426297736  0.7500000000000000
 
  0.00000000E+00  0.00000000E+00  0.00000000E+00
  0.00000000E+00  0.00000000E+00  0.00000000E+00
  0.00000000E+00  0.00000000E+00  0.00000000E+00
  0.00000000E+00  0.00000000E+00  0.00000000E+00
