C
   1.0
     5.1974710834319930    0.0000000000000000    0.0000000000000000
     2.5987355416166680    4.5011419937059483    0.0000000000000000
     2.5987355416166680    1.5003806645024302    4.2437173689411409
  16
Direct
  0.0000000000000000  0.0000000000000000  0.0000000000000000
  0.5000000000000000  0.0000000000000000  0.0000000000000000
  0.0000000000000000  0.5000000000000000  0.0000000000000000
  0.5000000000000000  0.5000000000000000  0.0000000000000000
  0.0000000000000000  0.0000000000000000  0.5000000000000000
  0.5000000000000000  0.0000000000000000  0.5000000000000000
  0.0000000000000000  0.5000000000000000  0.5000000000000000
  0.5000000000000000  0.5000000000000000  0.5000000000000000
  0.1250000000000000  0.1250000000000000  0.1249999925000000
  0.6250000000000000  0.1250000000000000  0.1249999925000000
  0.1250000000000000  0.6250000000000000  0.1249999925000000
  0.6250000000000000  0.6250000000000000  0.1249999925000000
  0.1250000000000000  0.1250000000000000  0.6249999925000000
  0.6250000000000000  0.1250000000000000  0.6249999925000000
  0.1250000000000000  0.6250000000000000  0.6249999925000000
  0.6250000000000000  0.6250000000000000  0.6249999925000000
