C6 H6
1.019612822
        7.3550000000         0.0000000000         0.0000000000
        0.0000000000         9.3710000000         0.0000000000
        0.0000000000         0.0000000000         6.7000000000
    C    H
   24   24
Direct
     0.945999980         0.137600005         0.999800026
     0.054000001         0.862399995         0.000200000
     0.554000020         0.862399995         0.499799997
     0.446000010         0.137600005         0.500199974
     0.054000001         0.637600005         0.500199974
     0.945999980         0.362399995         0.499799997
     0.446000010         0.362399995         0.000200000
     0.554000020         0.637600005         0.999800026
     0.076800004         0.090300001         0.132400006
     0.923200011         0.909699976         0.867599964
     0.423200011         0.909699976         0.632400036
     0.576799989         0.090300001         0.367599994
     0.923200011         0.590300024         0.367599994
     0.076800004         0.409700006         0.632400036
     0.576799989         0.409700006         0.867599964
     0.423200011         0.590300024         0.132400006
     0.870000005         0.045400001         0.871800005
     0.129999995         0.954599977         0.128199995
     0.629999995         0.954599977         0.371800005
     0.370000005         0.045400001         0.628199995
     0.129999995         0.545400023         0.628199995
     0.870000005         0.454600006         0.371800005
     0.370000005         0.454600006         0.128199995
     0.629999995         0.545400023         0.871800005
     0.911199987         0.231600001         0.999100029
     0.088799998         0.768400013         0.000900000
     0.588800013         0.768400013         0.499100000
     0.411199987         0.231600001         0.500899971
     0.088799998         0.731599987         0.500899971
     0.911199987         0.268400013         0.499100000
     0.411199987         0.268400013         0.000900000
     0.588800013         0.731599987         0.999100029
     0.126499996         0.151999995         0.222399995
     0.873499990         0.847999990         0.777599990
     0.373499990         0.847999990         0.722400010
     0.626500010         0.151999995         0.277599990
     0.873499990         0.652000010         0.277599990
     0.126499996         0.347999990         0.722400010
     0.626500010         0.347999990         0.777599990
     0.373499990         0.652000010         0.222399995
     0.780799985         0.076399997         0.786700010
     0.219200000         0.923600018         0.213300005
     0.719200015         0.923600018         0.286700010
     0.280799985         0.076399997         0.713299990
     0.219200000         0.576399982         0.713299990
     0.780799985         0.423600018         0.286700010
     0.280799985         0.423600018         0.213300005
     0.719200015         0.576399982         0.786700010
