methane                                 
  0.943538796000000     
     6.3499999045999997    0.0000000000000000    0.0000000000000000
     0.0000000000000000    6.3499999045999997    0.0000000000000000
     0.0000000000000000    0.0000000000000000    6.3499999045999997
   H    C 
    16     4
Direct
  0.4459885072288434  0.8001216688037313  0.5595832616873591
  0.4340919822225799  0.0549900977322874  0.2962599448828983
  0.4425018248950657  0.1423658239732726  0.6390567434858945
  0.7349869375001874  0.9960275525879937  0.4949005607594057
  0.6323416259731596  0.5356575969479888  0.2030447071418310
  0.5586602500920583  0.6787766632674286  0.8537805508877893
  0.5847375846136454  0.3070145215065060  0.9026525527280893
  0.2928150549173507  0.4944038267681716  0.0364842673515326
  0.1126169750684764  0.0237880529849601  0.2067732263015389
  0.0488464099543643  0.1609106268122590  0.8619380458722508
  0.0681124049980321  0.7961305118076468  0.9079630355598096
  0.7721246789497911  0.9747627391544742  0.0507302361679434
  0.0987213605879391  0.5495739648151549  0.7144471439945687
  0.0420436770397440  0.6822159452672708  0.3705177665629320
  0.0615262762826742  0.3076298818127721  0.4158236828996468
  0.7675813311896614  0.4926755615026200  0.5546881627213256
  0.5168319251512760  0.9982529276218952  0.4973523097346763
  0.5154712666975965  0.5041681004592267  0.0040575872495385
  0.9985915366536871  0.9905434862505706  0.0025916445274110
  0.9916183819838742  0.5075505699237584  0.5120645194835558
 
  0.00000000E+00  0.00000000E+00  0.00000000E+00
  0.00000000E+00  0.00000000E+00  0.00000000E+00
  0.00000000E+00  0.00000000E+00  0.00000000E+00
  0.00000000E+00  0.00000000E+00  0.00000000E+00
  0.00000000E+00  0.00000000E+00  0.00000000E+00
  0.00000000E+00  0.00000000E+00  0.00000000E+00
  0.00000000E+00  0.00000000E+00  0.00000000E+00
  0.00000000E+00  0.00000000E+00  0.00000000E+00
  0.00000000E+00  0.00000000E+00  0.00000000E+00
  0.00000000E+00  0.00000000E+00  0.00000000E+00
  0.00000000E+00  0.00000000E+00  0.00000000E+00
  0.00000000E+00  0.00000000E+00  0.00000000E+00
  0.00000000E+00  0.00000000E+00  0.00000000E+00
  0.00000000E+00  0.00000000E+00  0.00000000E+00
  0.00000000E+00  0.00000000E+00  0.00000000E+00
  0.00000000E+00  0.00000000E+00  0.00000000E+00
  0.00000000E+00  0.00000000E+00  0.00000000E+00
  0.00000000E+00  0.00000000E+00  0.00000000E+00
  0.00000000E+00  0.00000000E+00  0.00000000E+00
  0.00000000E+00  0.00000000E+00  0.00000000E+00
