methane-low                             
  0.943538796000000     
    11.7079000473000008    0.0000000000000000    0.0000000000000000
     0.0000000000000000    8.1892995834000004    0.0000000000000000
     0.0000000000000000    0.0000000000000000    8.1842002868999995
   H    C 
    64    16
Direct
  0.0809917844283533  0.7810161708058797  0.2566141015948274
  0.9190082375716414  0.2189838291941204  0.7433859274051715
  0.9190082375716414  0.7189838291941203  0.7566140725948285
  0.0809917844283533  0.2810161708058795  0.2433858984051726
  0.9190082375716414  0.2810161708058795  0.2433858984051726
  0.0809917844283533  0.7189838291941203  0.7566140725948285
  0.0809917844283533  0.2189838291941204  0.7433859274051715
  0.9190082375716414  0.7810161708058797  0.2566141015948274
  0.5809917624283586  0.2810161708058795  0.2566141015948274
  0.4190082085716425  0.7189838291941203  0.7433859274051715
  0.4190082085716424  0.2189838291941204  0.7566140725948286
  0.5809917624283586  0.7810161708058797  0.2433858984051726
  0.4190082085716425  0.7810161708058797  0.2433858984051726
  0.5809917624283586  0.2189838291941204  0.7566140725948285
  0.5809917624283586  0.7189838291941203  0.7433859274051715
  0.4190082085716425  0.2810161708058795  0.2566141015948274
  0.8064471366454609  0.5891575707237078  0.9267664895551776
  0.1935528633545394  0.4108424292762926  0.0732335104448225
  0.1935528633545394  0.9108424292762922  0.4267664895551775
  0.8064471366454609  0.0891575707237075  0.5732335104448225
  0.1935528633545394  0.0891575707237075  0.5732335104448225
  0.8064471366454609  0.9108424292762922  0.4267664895551775
  0.8064471366454609  0.4108424292762926  0.0732335104448225
  0.1935528633545394  0.5891575707237078  0.9267664895551776
  0.3064471366454605  0.0891575707237075  0.9267664895551776
  0.6935528633545391  0.9108424292762922  0.0732335104448225
  0.6935528633545391  0.4108424292762926  0.4267664895551775
  0.3064471366454605  0.5891575707237078  0.5732335104448225
  0.6935528633545391  0.5891575707237078  0.5732335104448225
  0.3064471366454605  0.4108424292762926  0.4267664895551775
  0.3064471366454605  0.9108424292762922  0.0732335104448225
  0.6935528633545391  0.0891575707237075  0.9267664895551776
  0.6922119062543733  0.5734670669493215  0.0894781618901729
  0.3077880937456270  0.4265329330506786  0.9105218381098272
  0.3077880937456270  0.9265329330506785  0.5894781618901728
  0.6922119062543733  0.0734670669493215  0.4105218381098270
  0.3077880937456270  0.0734670669493215  0.4105218381098270
  0.6922119062543732  0.9265329330506785  0.5894781618901728
  0.6922119062543733  0.4265329330506786  0.9105218381098272
  0.3077880937456270  0.5734670669493215  0.0894781618901729
  0.1922119062543730  0.0734670669493215  0.0894781618901729
  0.8077880937456267  0.9265329330506785  0.9105218381098272
  0.8077880937456267  0.4265329330506786  0.5894781618901728
  0.1922119062543730  0.5734670669493215  0.4105218381098270
  0.8077880937456268  0.5734670669493215  0.4105218381098270
  0.1922119062543730  0.4265329330506786  0.5894781618901728
  0.1922119062543730  0.9265329330506785  0.9105218381098272
  0.8077880937456268  0.0734670669493215  0.0894781618901729
 -0.0000000000000000  0.5902690475881447  0.1945856971118278
 -0.0000000000000000  0.4097309524118551  0.8054142728881696
 -0.0000000000000000  0.9097309524118553  0.6945857271118304
 -0.0000000000000000  0.0902690475881448  0.3054143028881723
  0.5000000000000000  0.0902690475881448  0.1945856971118278
  0.5000000000000000  0.9097309524118553  0.8054142728881696
  0.5000000000000000  0.4097309524118551  0.6945857271118304
  0.5000000000000000  0.5902690475881447  0.3054143028881723
 -0.0000000000000000  0.2235510309454080  0.9428327905105877
 -0.0000000000000000  0.7764489690545918 -0.9428327905105878
 -0.0000000000000000  0.2764489690545919  0.4428327905105877
 -0.0000000000000000 -0.2764489690545919 -0.4428327905105874
  0.5000000000000000 -0.2764489690545919  0.9428327905105873
  0.5000000000000000  0.2764489690545919 -0.9428327905105875
  0.5000000000000000  0.7764489690545918  0.4428327905105877
  0.5000000000000000  0.2235510309454080 -0.4428327905105874
 -0.0000000000000000  0.2318901872584833 -0.6914985267195881
 -0.0000000000000000  0.7681098127415165  0.6914985117195904
 -0.0000000000000000  0.2681098127415168 -0.1914985117195907
 -0.0000000000000000 -0.2681098127415169  0.1914985117195905
  0.5000000000000000 -0.2681098127415168 -0.6914985267195881
  0.5000000000000000  0.2681098127415168  0.6914985117195904
  0.5000000000000000  0.7681098127415166 -0.1914985117195907
  0.5000000000000000  0.2318901872584833  0.1914985117195905
  0.7491781604851746  0.5000000000000000  0.0000000000000000
  0.2508218395148255  0.5000000000000000  0.0000000000000000
  0.2508218395148255  0.0000000000000000  0.5000000000000000
  0.7491781604851746  0.0000000000000000  0.5000000000000000
  0.2491781604851745  0.0000000000000000  0.0000000000000000
  0.7508218395148254  0.0000000000000000  0.0000000000000000
  0.7508218395148254  0.5000000000000000  0.5000000000000000
  0.2491781604851745  0.5000000000000000  0.5000000000000000
 
  0.00000000E+00  0.00000000E+00  0.00000000E+00
  0.00000000E+00  0.00000000E+00  0.00000000E+00
  0.00000000E+00  0.00000000E+00  0.00000000E+00
  0.00000000E+00  0.00000000E+00  0.00000000E+00
  0.00000000E+00  0.00000000E+00  0.00000000E+00
  0.00000000E+00  0.00000000E+00  0.00000000E+00
  0.00000000E+00  0.00000000E+00  0.00000000E+00
  0.00000000E+00  0.00000000E+00  0.00000000E+00
  0.00000000E+00  0.00000000E+00  0.00000000E+00
  0.00000000E+00  0.00000000E+00  0.00000000E+00
  0.00000000E+00  0.00000000E+00  0.00000000E+00
  0.00000000E+00  0.00000000E+00  0.00000000E+00
  0.00000000E+00  0.00000000E+00  0.00000000E+00
  0.00000000E+00  0.00000000E+00  0.00000000E+00
  0.00000000E+00  0.00000000E+00  0.00000000E+00
  0.00000000E+00  0.00000000E+00  0.00000000E+00
  0.00000000E+00  0.00000000E+00  0.00000000E+00
  0.00000000E+00  0.00000000E+00  0.00000000E+00
  0.00000000E+00  0.00000000E+00  0.00000000E+00
  0.00000000E+00  0.00000000E+00  0.00000000E+00
  0.00000000E+00  0.00000000E+00  0.00000000E+00
  0.00000000E+00  0.00000000E+00  0.00000000E+00
  0.00000000E+00  0.00000000E+00  0.00000000E+00
  0.00000000E+00  0.00000000E+00  0.00000000E+00
  0.00000000E+00  0.00000000E+00  0.00000000E+00
  0.00000000E+00  0.00000000E+00  0.00000000E+00
  0.00000000E+00  0.00000000E+00  0.00000000E+00
  0.00000000E+00  0.00000000E+00  0.00000000E+00
  0.00000000E+00  0.00000000E+00  0.00000000E+00
  0.00000000E+00  0.00000000E+00  0.00000000E+00
  0.00000000E+00  0.00000000E+00  0.00000000E+00
  0.00000000E+00  0.00000000E+00  0.00000000E+00
  0.00000000E+00  0.00000000E+00  0.00000000E+00
  0.00000000E+00  0.00000000E+00  0.00000000E+00
  0.00000000E+00  0.00000000E+00  0.00000000E+00
  0.00000000E+00  0.00000000E+00  0.00000000E+00
  0.00000000E+00  0.00000000E+00  0.00000000E+00
  0.00000000E+00  0.00000000E+00  0.00000000E+00
  0.00000000E+00  0.00000000E+00  0.00000000E+00
  0.00000000E+00  0.00000000E+00  0.00000000E+00
  0.00000000E+00  0.00000000E+00  0.00000000E+00
  0.00000000E+00  0.00000000E+00  0.00000000E+00
  0.00000000E+00  0.00000000E+00  0.00000000E+00
  0.00000000E+00  0.00000000E+00  0.00000000E+00
  0.00000000E+00  0.00000000E+00  0.00000000E+00
  0.00000000E+00  0.00000000E+00  0.00000000E+00
  0.00000000E+00  0.00000000E+00  0.00000000E+00
  0.00000000E+00  0.00000000E+00  0.00000000E+00
  0.00000000E+00  0.00000000E+00  0.00000000E+00
  0.00000000E+00  0.00000000E+00  0.00000000E+00
  0.00000000E+00  0.00000000E+00  0.00000000E+00
  0.00000000E+00  0.00000000E+00  0.00000000E+00
  0.00000000E+00  0.00000000E+00  0.00000000E+00
  0.00000000E+00  0.00000000E+00  0.00000000E+00
  0.00000000E+00  0.00000000E+00  0.00000000E+00
  0.00000000E+00  0.00000000E+00  0.00000000E+00
  0.00000000E+00  0.00000000E+00  0.00000000E+00
  0.00000000E+00  0.00000000E+00  0.00000000E+00
  0.00000000E+00  0.00000000E+00  0.00000000E+00
  0.00000000E+00  0.00000000E+00  0.00000000E+00
  0.00000000E+00  0.00000000E+00  0.00000000E+00
  0.00000000E+00  0.00000000E+00  0.00000000E+00
  0.00000000E+00  0.00000000E+00  0.00000000E+00
  0.00000000E+00  0.00000000E+00  0.00000000E+00
  0.00000000E+00  0.00000000E+00  0.00000000E+00
  0.00000000E+00  0.00000000E+00  0.00000000E+00
  0.00000000E+00  0.00000000E+00  0.00000000E+00
  0.00000000E+00  0.00000000E+00  0.00000000E+00
  0.00000000E+00  0.00000000E+00  0.00000000E+00
  0.00000000E+00  0.00000000E+00  0.00000000E+00
  0.00000000E+00  0.00000000E+00  0.00000000E+00
  0.00000000E+00  0.00000000E+00  0.00000000E+00
  0.00000000E+00  0.00000000E+00  0.00000000E+00
  0.00000000E+00  0.00000000E+00  0.00000000E+00
  0.00000000E+00  0.00000000E+00  0.00000000E+00
  0.00000000E+00  0.00000000E+00  0.00000000E+00
  0.00000000E+00  0.00000000E+00  0.00000000E+00
  0.00000000E+00  0.00000000E+00  0.00000000E+00
  0.00000000E+00  0.00000000E+00  0.00000000E+00
  0.00000000E+00  0.00000000E+00  0.00000000E+00
