methane-low                             
   1.00662271000000     
    11.7079000473000008    0.0000000000000000    0.0000000000000000
     0.0000000000000000    8.1892995834000004    0.0000000000000000
     0.0000000000000000    0.0000000000000000    8.1842002868999995
   H    C 
    64    16
Direct
  0.0756242221947133  0.8273811683030738  0.1562856039883397
  0.9243757998052815  0.1726188316969262  0.8437144250116592
  0.9243757998052815  0.6726188316969262  0.6562855749883408
  0.0756242221947133  0.3273811683030738  0.3437143960116602
  0.9243757998052815  0.3273811683030738  0.3437143960116602
  0.0756242221947133  0.6726188316969262  0.6562855749883408
  0.0756242221947133  0.1726188316969262  0.8437144250116592
  0.9243757998052815  0.8273811683030738  0.1562856039883397
  0.5756242001947185  0.3273811683030738  0.1562856039883397
  0.4243757708052828  0.6726188316969262  0.8437144250116592
  0.4243757708052827  0.1726188316969262  0.6562855749883408
  0.5756242001947185  0.8273811683030738  0.3437143960116602
  0.4243757708052828  0.8273811683030738  0.3437143960116602
  0.5756242001947185  0.1726188316969262  0.6562855749883408
  0.5756242001947185  0.6726188316969262  0.8437144250116592
  0.4243757708052827  0.3273811683030738  0.1562856039883397
  0.8061201325628596  0.5841664574081470  0.9311333041645210
  0.1938798674371405  0.4158335425918531  0.0688666958354792
  0.1938798674371405  0.9158335425918530  0.4311333041645209
  0.8061201325628596  0.0841664574081470  0.5688666958354790
  0.1938798674371405  0.0841664574081470  0.5688666958354790
  0.8061201325628596  0.9158335425918530  0.4311333041645209
  0.8061201325628596  0.4158335425918531  0.0688666958354792
  0.1938798674371405  0.5841664574081470  0.9311333041645210
  0.3061201325628595  0.0841664574081470  0.9311333041645210
  0.6938798674371404  0.9158335425918530  0.0688666958354792
  0.6938798674371404  0.4158335425918531  0.4311333041645209
  0.3061201325628595  0.5841664574081470  0.5688666958354790
  0.6938798674371404  0.5841664574081470  0.5688666958354790
  0.3061201325628595  0.4158335425918531  0.4311333041645209
  0.3061201325628595  0.9158335425918530  0.0688666958354792
  0.6938798674371404  0.0841664574081470  0.9311333041645210
  0.6987372972709007  0.5691131177420348  0.0836522469809921
  0.3012627027290994  0.4308868822579650  0.9163477530190081
  0.3012627027290994  0.9308868822579652  0.5836522469809919
  0.6987372972709007  0.0691131177420350  0.4163477530190079
  0.3012627027290994  0.0691131177420350  0.4163477530190079
  0.6987372972709007  0.9308868822579652  0.5836522469809919
  0.6987372972709007  0.4308868822579650  0.9163477530190081
  0.3012627027290994  0.5691131177420348  0.0836522469809921
  0.1987372972709006  0.0691131177420350  0.0836522469809921
  0.8012627027290993  0.9308868822579652  0.9163477530190081
  0.8012627027290993  0.4308868822579650  0.5836522469809919
  0.1987372972709006  0.5691131177420348  0.4163477530190079
  0.8012627027290993  0.5691131177420348  0.4163477530190079
  0.1987372972709006  0.4308868822579650  0.5836522469809919
  0.1987372972709006  0.9308868822579652  0.9163477530190081
  0.8012627027290993  0.0691131177420350  0.0836522469809921
 -0.0000000000000000  0.6396337902697135  0.1382276905538023
 -0.0000000000000000  0.3603662097302869  0.8617722794461952
 -0.0000000000000000  0.8603662097302865  0.6382277205538048
 -0.0000000000000000  0.1396337902697131  0.3617723094461976
  0.5000000000000000  0.1396337902697131  0.1382276905538023
  0.5000000000000000  0.8603662097302865  0.8617722794461952
  0.5000000000000000  0.3603662097302869  0.6382277205538048
  0.5000000000000000  0.6396337902697135  0.3617723094461976
 -0.0000000000000000  0.2812846435963711  0.5255779860030056
 -0.0000000000000000  0.7187153564036292  0.4744220139969942
 -0.0000000000000000  0.2187153564036289  0.0255779860030057
 -0.0000000000000000  0.7812846435963708  0.9744220139969942
  0.5000000000000000  0.7812846435963708  0.5255779860030056
  0.5000000000000000  0.2187153564036289  0.4744220139969942
  0.5000000000000000  0.7187153564036292  0.0255779860030057
  0.5000000000000000  0.2812846435963711  0.9744220139969942
 -0.0000000000000000  0.2684888015723026  0.3923747858960962
 -0.0000000000000000  0.7315111984276974  0.6076251991039066
 -0.0000000000000000  0.2315111984276974  0.8923748008960934
 -0.0000000000000000  0.7684888015723026  0.1076251991039062
  0.5000000000000000  0.7684888015723026  0.3923747858960962
  0.5000000000000000  0.2315111984276973  0.6076251991039066
  0.5000000000000000  0.7315111984276973  0.8923748008960934
  0.5000000000000000  0.2684888015723025  0.1076251991039062
  0.7523867597439610  0.5000000000000000  0.0000000000000000
  0.2476132402560390  0.5000000000000000  0.0000000000000000
  0.2476132402560390 -0.0000000000000000  0.5000000000000000
  0.7523867597439610 -0.0000000000000000  0.5000000000000000
  0.2523867597439611 -0.0000000000000000  0.0000000000000000
  0.7476132402560390 -0.0000000000000000  0.0000000000000000
  0.7476132402560390  0.5000000000000000  0.5000000000000000
  0.2523867597439611  0.5000000000000000  0.5000000000000000
 
  0.00000000E+00  0.00000000E+00  0.00000000E+00
  0.00000000E+00  0.00000000E+00  0.00000000E+00
  0.00000000E+00  0.00000000E+00  0.00000000E+00
  0.00000000E+00  0.00000000E+00  0.00000000E+00
  0.00000000E+00  0.00000000E+00  0.00000000E+00
  0.00000000E+00  0.00000000E+00  0.00000000E+00
  0.00000000E+00  0.00000000E+00  0.00000000E+00
  0.00000000E+00  0.00000000E+00  0.00000000E+00
  0.00000000E+00  0.00000000E+00  0.00000000E+00
  0.00000000E+00  0.00000000E+00  0.00000000E+00
  0.00000000E+00  0.00000000E+00  0.00000000E+00
  0.00000000E+00  0.00000000E+00  0.00000000E+00
  0.00000000E+00  0.00000000E+00  0.00000000E+00
  0.00000000E+00  0.00000000E+00  0.00000000E+00
  0.00000000E+00  0.00000000E+00  0.00000000E+00
  0.00000000E+00  0.00000000E+00  0.00000000E+00
  0.00000000E+00  0.00000000E+00  0.00000000E+00
  0.00000000E+00  0.00000000E+00  0.00000000E+00
  0.00000000E+00  0.00000000E+00  0.00000000E+00
  0.00000000E+00  0.00000000E+00  0.00000000E+00
  0.00000000E+00  0.00000000E+00  0.00000000E+00
  0.00000000E+00  0.00000000E+00  0.00000000E+00
  0.00000000E+00  0.00000000E+00  0.00000000E+00
  0.00000000E+00  0.00000000E+00  0.00000000E+00
  0.00000000E+00  0.00000000E+00  0.00000000E+00
  0.00000000E+00  0.00000000E+00  0.00000000E+00
  0.00000000E+00  0.00000000E+00  0.00000000E+00
  0.00000000E+00  0.00000000E+00  0.00000000E+00
  0.00000000E+00  0.00000000E+00  0.00000000E+00
  0.00000000E+00  0.00000000E+00  0.00000000E+00
  0.00000000E+00  0.00000000E+00  0.00000000E+00
  0.00000000E+00  0.00000000E+00  0.00000000E+00
  0.00000000E+00  0.00000000E+00  0.00000000E+00
  0.00000000E+00  0.00000000E+00  0.00000000E+00
  0.00000000E+00  0.00000000E+00  0.00000000E+00
  0.00000000E+00  0.00000000E+00  0.00000000E+00
  0.00000000E+00  0.00000000E+00  0.00000000E+00
  0.00000000E+00  0.00000000E+00  0.00000000E+00
  0.00000000E+00  0.00000000E+00  0.00000000E+00
  0.00000000E+00  0.00000000E+00  0.00000000E+00
  0.00000000E+00  0.00000000E+00  0.00000000E+00
  0.00000000E+00  0.00000000E+00  0.00000000E+00
  0.00000000E+00  0.00000000E+00  0.00000000E+00
  0.00000000E+00  0.00000000E+00  0.00000000E+00
  0.00000000E+00  0.00000000E+00  0.00000000E+00
  0.00000000E+00  0.00000000E+00  0.00000000E+00
  0.00000000E+00  0.00000000E+00  0.00000000E+00
  0.00000000E+00  0.00000000E+00  0.00000000E+00
  0.00000000E+00  0.00000000E+00  0.00000000E+00
  0.00000000E+00  0.00000000E+00  0.00000000E+00
  0.00000000E+00  0.00000000E+00  0.00000000E+00
  0.00000000E+00  0.00000000E+00  0.00000000E+00
  0.00000000E+00  0.00000000E+00  0.00000000E+00
  0.00000000E+00  0.00000000E+00  0.00000000E+00
  0.00000000E+00  0.00000000E+00  0.00000000E+00
  0.00000000E+00  0.00000000E+00  0.00000000E+00
  0.00000000E+00  0.00000000E+00  0.00000000E+00
  0.00000000E+00  0.00000000E+00  0.00000000E+00
  0.00000000E+00  0.00000000E+00  0.00000000E+00
  0.00000000E+00  0.00000000E+00  0.00000000E+00
  0.00000000E+00  0.00000000E+00  0.00000000E+00
  0.00000000E+00  0.00000000E+00  0.00000000E+00
  0.00000000E+00  0.00000000E+00  0.00000000E+00
  0.00000000E+00  0.00000000E+00  0.00000000E+00
  0.00000000E+00  0.00000000E+00  0.00000000E+00
  0.00000000E+00  0.00000000E+00  0.00000000E+00
  0.00000000E+00  0.00000000E+00  0.00000000E+00
  0.00000000E+00  0.00000000E+00  0.00000000E+00
  0.00000000E+00  0.00000000E+00  0.00000000E+00
  0.00000000E+00  0.00000000E+00  0.00000000E+00
  0.00000000E+00  0.00000000E+00  0.00000000E+00
  0.00000000E+00  0.00000000E+00  0.00000000E+00
  0.00000000E+00  0.00000000E+00  0.00000000E+00
  0.00000000E+00  0.00000000E+00  0.00000000E+00
  0.00000000E+00  0.00000000E+00  0.00000000E+00
  0.00000000E+00  0.00000000E+00  0.00000000E+00
  0.00000000E+00  0.00000000E+00  0.00000000E+00
  0.00000000E+00  0.00000000E+00  0.00000000E+00
  0.00000000E+00  0.00000000E+00  0.00000000E+00
  0.00000000E+00  0.00000000E+00  0.00000000E+00
