methane-low                             
   1.00662271000000     
    11.7079000473000008    0.0000000000000000    0.0000000000000000
     0.0000000000000000    8.1892995834000004    0.0000000000000000
     0.0000000000000000    0.0000000000000000    8.1842002868999995
   H    C 
    64    16
Direct
  0.0831088403206375  0.7880415548328997  0.1392628560975819
  0.9168911816793573  0.2119584451671002  0.8607371729024169
  0.9168911816793573  0.7119584451671003  0.6392628270975831
  0.0831088403206375  0.2880415548328998  0.3607371439024182
  0.9168911816793573  0.2880415548328998  0.3607371439024182
  0.0831088403206375  0.7119584451671003  0.6392628270975831
  0.0831088403206375  0.2119584451671002  0.8607371729024169
  0.9168911816793573  0.7880415548328997  0.1392628560975819
  0.5831088183206427  0.2880415548328998  0.1392628560975819
  0.4168911526793584  0.7119584451671003  0.8607371729024169
  0.4168911526793584  0.2119584451671002  0.6392628270975831
  0.5831088183206427  0.7880415548328997  0.3607371439024182
  0.4168911526793584  0.7880415548328997  0.3607371439024182
  0.5831088183206427  0.2119584451671002  0.6392628270975831
  0.5831088183206427  0.7119584451671003  0.8607371729024169
  0.4168911526793584  0.2880415548328998  0.1392628560975819
  0.8114217777377465  0.5858905008505733  0.9294011712266277
  0.1885782222622537  0.4141094991494268  0.0705988287733723
  0.1885782222622537  0.9141094991494267  0.4294011712266275
  0.8114217777377465  0.0858905008505733  0.5705988287733723
  0.1885782222622537  0.0858905008505733  0.5705988287733723
  0.8114217777377465  0.9141094991494267  0.4294011712266275
  0.8114217777377465  0.4141094991494268  0.0705988287733724
  0.1885782222622537  0.5858905008505733  0.9294011712266277
  0.3114217777377463  0.0858905008505733  0.9294011712266277
  0.6885782222622535  0.9141094991494267  0.0705988287733723
  0.6885782222622535  0.4141094991494268  0.4294011712266275
  0.3114217777377463  0.5858905008505733  0.5705988287733723
  0.6885782222622535  0.5858905008505733  0.5705988287733723
  0.3114217777377463  0.4141094991494268  0.4294011712266275
  0.3114217777377463  0.9141094991494267  0.0705988287733723
  0.6885782222622535  0.0858905008505733  0.9294011712266277
  0.6943541012694292  0.5673306065694362  0.0901836762470867
  0.3056458987305711  0.4326693934305637  0.9098163237529132
  0.3056458987305711  0.9326693934305638  0.5901836762470868
  0.6943541012694292  0.0673306065694362  0.4098163237529134
  0.3056458987305711  0.0673306065694362  0.4098163237529134
  0.6943541012694292  0.9326693934305638  0.5901836762470868
  0.6943541012694292  0.4326693934305637  0.9098163237529132
  0.3056458987305711  0.5673306065694362  0.0901836762470867
  0.1943541012694289  0.0673306065694363  0.0901836762470867
  0.8056458987305708  0.9326693934305638  0.9098163237529132
  0.8056458987305708  0.4326693934305637  0.5901836762470868
  0.1943541012694289  0.5673306065694362  0.4098163237529134
  0.8056458987305708  0.5673306065694362  0.4098163237529134
  0.1943541012694289  0.4326693934305637  0.5901836762470868
  0.1943541012694289  0.9326693934305638  0.9098163237529132
  0.8056458987305708  0.0673306065694363  0.0901836762470867
  0.0000000000000000  0.5743908337342718  0.2490294580882544
  0.0000000000000000  0.4256091662657284  0.7509705119117431
  0.0000000000000000  0.9256091662657282  0.7490294880882568
  0.0000000000000000  0.0743908337342717  0.2509705419117456
  0.5000000000000000  0.0743908337342717  0.2490294580882544
  0.5000000000000000  0.9256091662657282  0.7509705119117431
  0.5000000000000000  0.4256091662657284  0.7490294880882568
  0.5000000000000000  0.5743908337342718  0.2509705419117456
  0.0000000000000000  0.3705286161967752  0.5831016648982972
  0.0000000000000000  0.6294713838032245 -0.5831016648982971
  0.0000000000000000  0.1294713838032245  0.0831016648982972
  0.0000000000000000 -0.1294713838032246 -0.0831016648982971
  0.5000000000000000 -0.1294713838032246  0.5831016648982972
  0.5000000000000000  0.1294713838032245 -0.5831016648982971
  0.5000000000000000  0.6294713838032245  0.0831016648982972
  0.5000000000000000  0.3705286161967752 -0.0831016648982972
  0.0000000000000000  0.3238967470485056 -0.5586578976605973
  0.0000000000000000  0.6761032529514945  0.5586578826605997
  0.0000000000000000  0.1761032529514945 -0.0586578826605994
  0.0000000000000000 -0.1761032529514943  0.0586578826605995
  0.5000000000000000 -0.1761032529514943 -0.5586578976605973
  0.5000000000000000  0.1761032529514945  0.5586578826605997
  0.5000000000000000  0.6761032529514945 -0.0586578826605994
  0.5000000000000000  0.3238967470485056  0.0586578826605995
  0.7502508030879708  0.5000000000000000 -0.0000000000000000
  0.2497491969120292  0.5000000000000000 -0.0000000000000000
  0.2497491969120292 -0.0000000000000000  0.5000000000000000
  0.7502508030879708 -0.0000000000000000  0.5000000000000000
  0.2502508030879707 -0.0000000000000000 -0.0000000000000000
  0.7497491969120292 -0.0000000000000000 -0.0000000000000000
  0.7497491969120292  0.5000000000000000  0.5000000000000000
  0.2502508030879707  0.5000000000000000  0.5000000000000000
 
  0.00000000E+00  0.00000000E+00  0.00000000E+00
  0.00000000E+00  0.00000000E+00  0.00000000E+00
  0.00000000E+00  0.00000000E+00  0.00000000E+00
  0.00000000E+00  0.00000000E+00  0.00000000E+00
  0.00000000E+00  0.00000000E+00  0.00000000E+00
  0.00000000E+00  0.00000000E+00  0.00000000E+00
  0.00000000E+00  0.00000000E+00  0.00000000E+00
  0.00000000E+00  0.00000000E+00  0.00000000E+00
  0.00000000E+00  0.00000000E+00  0.00000000E+00
  0.00000000E+00  0.00000000E+00  0.00000000E+00
  0.00000000E+00  0.00000000E+00  0.00000000E+00
  0.00000000E+00  0.00000000E+00  0.00000000E+00
  0.00000000E+00  0.00000000E+00  0.00000000E+00
  0.00000000E+00  0.00000000E+00  0.00000000E+00
  0.00000000E+00  0.00000000E+00  0.00000000E+00
  0.00000000E+00  0.00000000E+00  0.00000000E+00
  0.00000000E+00  0.00000000E+00  0.00000000E+00
  0.00000000E+00  0.00000000E+00  0.00000000E+00
  0.00000000E+00  0.00000000E+00  0.00000000E+00
  0.00000000E+00  0.00000000E+00  0.00000000E+00
  0.00000000E+00  0.00000000E+00  0.00000000E+00
  0.00000000E+00  0.00000000E+00  0.00000000E+00
  0.00000000E+00  0.00000000E+00  0.00000000E+00
  0.00000000E+00  0.00000000E+00  0.00000000E+00
  0.00000000E+00  0.00000000E+00  0.00000000E+00
  0.00000000E+00  0.00000000E+00  0.00000000E+00
  0.00000000E+00  0.00000000E+00  0.00000000E+00
  0.00000000E+00  0.00000000E+00  0.00000000E+00
  0.00000000E+00  0.00000000E+00  0.00000000E+00
  0.00000000E+00  0.00000000E+00  0.00000000E+00
  0.00000000E+00  0.00000000E+00  0.00000000E+00
  0.00000000E+00  0.00000000E+00  0.00000000E+00
  0.00000000E+00  0.00000000E+00  0.00000000E+00
  0.00000000E+00  0.00000000E+00  0.00000000E+00
  0.00000000E+00  0.00000000E+00  0.00000000E+00
  0.00000000E+00  0.00000000E+00  0.00000000E+00
  0.00000000E+00  0.00000000E+00  0.00000000E+00
  0.00000000E+00  0.00000000E+00  0.00000000E+00
  0.00000000E+00  0.00000000E+00  0.00000000E+00
  0.00000000E+00  0.00000000E+00  0.00000000E+00
  0.00000000E+00  0.00000000E+00  0.00000000E+00
  0.00000000E+00  0.00000000E+00  0.00000000E+00
  0.00000000E+00  0.00000000E+00  0.00000000E+00
  0.00000000E+00  0.00000000E+00  0.00000000E+00
  0.00000000E+00  0.00000000E+00  0.00000000E+00
  0.00000000E+00  0.00000000E+00  0.00000000E+00
  0.00000000E+00  0.00000000E+00  0.00000000E+00
  0.00000000E+00  0.00000000E+00  0.00000000E+00
  0.00000000E+00  0.00000000E+00  0.00000000E+00
  0.00000000E+00  0.00000000E+00  0.00000000E+00
  0.00000000E+00  0.00000000E+00  0.00000000E+00
  0.00000000E+00  0.00000000E+00  0.00000000E+00
  0.00000000E+00  0.00000000E+00  0.00000000E+00
  0.00000000E+00  0.00000000E+00  0.00000000E+00
  0.00000000E+00  0.00000000E+00  0.00000000E+00
  0.00000000E+00  0.00000000E+00  0.00000000E+00
  0.00000000E+00  0.00000000E+00  0.00000000E+00
  0.00000000E+00  0.00000000E+00  0.00000000E+00
  0.00000000E+00  0.00000000E+00  0.00000000E+00
  0.00000000E+00  0.00000000E+00  0.00000000E+00
  0.00000000E+00  0.00000000E+00  0.00000000E+00
  0.00000000E+00  0.00000000E+00  0.00000000E+00
  0.00000000E+00  0.00000000E+00  0.00000000E+00
  0.00000000E+00  0.00000000E+00  0.00000000E+00
  0.00000000E+00  0.00000000E+00  0.00000000E+00
  0.00000000E+00  0.00000000E+00  0.00000000E+00
  0.00000000E+00  0.00000000E+00  0.00000000E+00
  0.00000000E+00  0.00000000E+00  0.00000000E+00
  0.00000000E+00  0.00000000E+00  0.00000000E+00
  0.00000000E+00  0.00000000E+00  0.00000000E+00
  0.00000000E+00  0.00000000E+00  0.00000000E+00
  0.00000000E+00  0.00000000E+00  0.00000000E+00
  0.00000000E+00  0.00000000E+00  0.00000000E+00
  0.00000000E+00  0.00000000E+00  0.00000000E+00
  0.00000000E+00  0.00000000E+00  0.00000000E+00
  0.00000000E+00  0.00000000E+00  0.00000000E+00
  0.00000000E+00  0.00000000E+00  0.00000000E+00
  0.00000000E+00  0.00000000E+00  0.00000000E+00
  0.00000000E+00  0.00000000E+00  0.00000000E+00
  0.00000000E+00  0.00000000E+00  0.00000000E+00
