methane-low                             
   1.00662271000000     
    11.7079000473000008    0.0000000000000000    0.0000000000000000
     0.0000000000000000    8.1892995834000004    0.0000000000000000
     0.0000000000000000    0.0000000000000000    8.1842002868999995
   H    C 
    64    16
Direct
  0.0792630619474762  0.7917369488980351  0.1509975569004575
  0.9207369600525186  0.2082630511019648  0.8490024720995413
  0.9207369600525186  0.7082630511019649  0.6509975279004587
  0.0792630619474762  0.2917369488980352  0.3490024430995425
  0.9207369600525186  0.2917369488980352  0.3490024430995425
  0.0792630619474762  0.7082630511019649  0.6509975279004587
  0.0792630619474762  0.2082630511019648  0.8490024720995413
  0.9207369600525186  0.7917369488980351  0.1509975569004575
  0.5792630399474814  0.2917369488980352  0.1509975569004575
  0.4207369310525197  0.7082630511019649  0.8490024720995413
  0.4207369310525197  0.2082630511019648  0.6509975279004587
  0.5792630399474814  0.7917369488980351  0.3490024430995425
  0.4207369310525197  0.7917369488980351  0.3490024430995425
  0.5792630399474814  0.2082630511019648  0.6509975279004587
  0.5792630399474814  0.7082630511019649  0.8490024720995413
  0.4207369310525197  0.2917369488980352  0.1509975569004575
  0.8112727383094691  0.5881448431827744  0.9248365285268643
  0.1887272616905310  0.4118551568172255  0.0751634714731358
  0.1887272616905310  0.9118551568172256  0.4248365285268642
  0.8112727383094691  0.0881448431827745  0.5751634714731357
  0.1887272616905310  0.0881448431827745  0.5751634714731357
  0.8112727383094691  0.9118551568172256  0.4248365285268642
  0.8112727383094691  0.4118551568172255  0.0751634714731358
  0.1887272616905310  0.5881448431827744  0.9248365285268643
  0.3112727383094690  0.0881448431827745  0.9248365285268643
  0.6887272616905309  0.9118551568172256  0.0751634714731358
  0.6887272616905309  0.4118551568172255  0.4248365285268642
  0.3112727383094690  0.5881448431827744  0.5751634714731357
  0.6887272616905309  0.5881448431827744  0.5751634714731357
  0.3112727383094690  0.4118551568172255  0.4248365285268642
  0.3112727383094690  0.9118551568172256  0.0751634714731358
  0.6887272616905309  0.0881448431827745  0.9248365285268643
  0.6893507724255286  0.5730087459791082  0.0915938737268787
  0.3106492275744716  0.4269912540208918  0.9084061262731212
  0.3106492275744716  0.9269912540208918  0.5915938737268788
  0.6893507724255286  0.0730087459791082  0.4084061262731213
  0.3106492275744716  0.0730087459791082  0.4084061262731213
  0.6893507724255286  0.9269912540208918  0.5915938737268788
  0.6893507724255286  0.4269912540208918  0.9084061262731212
  0.3106492275744716  0.5730087459791082  0.0915938737268787
  0.1893507724255284  0.0730087459791082  0.0915938737268787
  0.8106492275744714  0.9269912540208918  0.9084061262731212
  0.8106492275744714  0.4269912540208918  0.5915938737268788
  0.1893507724255284  0.5730087459791082  0.4084061262731213
  0.8106492275744714  0.5730087459791082  0.4084061262731213
  0.1893507724255284  0.4269912540208918  0.5915938737268788
  0.1893507724255284  0.9269912540208918  0.9084061262731212
  0.8106492275744714  0.0730087459791082  0.0915938737268787
  0.0000000000000000  0.5887944281859210  0.2232792842404524
  0.0000000000000000  0.4112055718140790  0.7767206857595450
  0.0000000000000000  0.9112055718140790  0.7232793142404549
  0.0000000000000000  0.0887944281859210  0.2767207157595475
  0.5000000000000000  0.0887944281859210  0.2232792842404524
  0.5000000000000000  0.9112055718140790  0.7767206857595450
  0.5000000000000000  0.4112055718140790  0.7232793142404549
  0.5000000000000000  0.5887944281859210  0.2767207157595475
  0.0000000000000000  0.3494586635566846  0.5817632851673800
  0.0000000000000000  0.6505413364433151 -0.5817632851673799
  0.0000000000000000  0.1505413364433152  0.0817632851673799
  0.0000000000000000 -0.1505413364433153 -0.0817632851673798
  0.5000000000000000 -0.1505413364433153  0.5817632851673800
  0.5000000000000000  0.1505413364433152 -0.5817632851673799
  0.5000000000000000  0.6505413364433151  0.0817632851673799
  0.5000000000000000  0.3494586635566846 -0.0817632851673799
  0.0000000000000000  0.3341197675587160 -0.5711593557012952
  0.0000000000000000  0.6658802324412840  0.5711593407012976
  0.0000000000000000  0.1658802324412841 -0.0711593407012974
  0.0000000000000000 -0.1658802324412840  0.0711593407012975
  0.5000000000000000 -0.1658802324412840 -0.5711593557012952
  0.5000000000000000  0.1658802324412841  0.5711593407012976
  0.5000000000000000  0.6658802324412840 -0.0711593407012974
  0.5000000000000000  0.3341197675587160  0.0711593407012975
  0.7507667465550355  0.5000000000000000 -0.0000000000000000
  0.2492332534449644  0.5000000000000000 -0.0000000000000000
  0.2492332534449644  0.0000000000000000  0.5000000000000000
  0.7507667465550355  0.0000000000000000  0.5000000000000000
  0.2507667465550355  0.0000000000000000 -0.0000000000000000
  0.7492332534449645  0.0000000000000000 -0.0000000000000000
  0.7492332534449645  0.5000000000000000  0.5000000000000000
  0.2507667465550355  0.5000000000000000  0.5000000000000000
 
  0.00000000E+00  0.00000000E+00  0.00000000E+00
  0.00000000E+00  0.00000000E+00  0.00000000E+00
  0.00000000E+00  0.00000000E+00  0.00000000E+00
  0.00000000E+00  0.00000000E+00  0.00000000E+00
  0.00000000E+00  0.00000000E+00  0.00000000E+00
  0.00000000E+00  0.00000000E+00  0.00000000E+00
  0.00000000E+00  0.00000000E+00  0.00000000E+00
  0.00000000E+00  0.00000000E+00  0.00000000E+00
  0.00000000E+00  0.00000000E+00  0.00000000E+00
  0.00000000E+00  0.00000000E+00  0.00000000E+00
  0.00000000E+00  0.00000000E+00  0.00000000E+00
  0.00000000E+00  0.00000000E+00  0.00000000E+00
  0.00000000E+00  0.00000000E+00  0.00000000E+00
  0.00000000E+00  0.00000000E+00  0.00000000E+00
  0.00000000E+00  0.00000000E+00  0.00000000E+00
  0.00000000E+00  0.00000000E+00  0.00000000E+00
  0.00000000E+00  0.00000000E+00  0.00000000E+00
  0.00000000E+00  0.00000000E+00  0.00000000E+00
  0.00000000E+00  0.00000000E+00  0.00000000E+00
  0.00000000E+00  0.00000000E+00  0.00000000E+00
  0.00000000E+00  0.00000000E+00  0.00000000E+00
  0.00000000E+00  0.00000000E+00  0.00000000E+00
  0.00000000E+00  0.00000000E+00  0.00000000E+00
  0.00000000E+00  0.00000000E+00  0.00000000E+00
  0.00000000E+00  0.00000000E+00  0.00000000E+00
  0.00000000E+00  0.00000000E+00  0.00000000E+00
  0.00000000E+00  0.00000000E+00  0.00000000E+00
  0.00000000E+00  0.00000000E+00  0.00000000E+00
  0.00000000E+00  0.00000000E+00  0.00000000E+00
  0.00000000E+00  0.00000000E+00  0.00000000E+00
  0.00000000E+00  0.00000000E+00  0.00000000E+00
  0.00000000E+00  0.00000000E+00  0.00000000E+00
  0.00000000E+00  0.00000000E+00  0.00000000E+00
  0.00000000E+00  0.00000000E+00  0.00000000E+00
  0.00000000E+00  0.00000000E+00  0.00000000E+00
  0.00000000E+00  0.00000000E+00  0.00000000E+00
  0.00000000E+00  0.00000000E+00  0.00000000E+00
  0.00000000E+00  0.00000000E+00  0.00000000E+00
  0.00000000E+00  0.00000000E+00  0.00000000E+00
  0.00000000E+00  0.00000000E+00  0.00000000E+00
  0.00000000E+00  0.00000000E+00  0.00000000E+00
  0.00000000E+00  0.00000000E+00  0.00000000E+00
  0.00000000E+00  0.00000000E+00  0.00000000E+00
  0.00000000E+00  0.00000000E+00  0.00000000E+00
  0.00000000E+00  0.00000000E+00  0.00000000E+00
  0.00000000E+00  0.00000000E+00  0.00000000E+00
  0.00000000E+00  0.00000000E+00  0.00000000E+00
  0.00000000E+00  0.00000000E+00  0.00000000E+00
  0.00000000E+00  0.00000000E+00  0.00000000E+00
  0.00000000E+00  0.00000000E+00  0.00000000E+00
  0.00000000E+00  0.00000000E+00  0.00000000E+00
  0.00000000E+00  0.00000000E+00  0.00000000E+00
  0.00000000E+00  0.00000000E+00  0.00000000E+00
  0.00000000E+00  0.00000000E+00  0.00000000E+00
  0.00000000E+00  0.00000000E+00  0.00000000E+00
  0.00000000E+00  0.00000000E+00  0.00000000E+00
  0.00000000E+00  0.00000000E+00  0.00000000E+00
  0.00000000E+00  0.00000000E+00  0.00000000E+00
  0.00000000E+00  0.00000000E+00  0.00000000E+00
  0.00000000E+00  0.00000000E+00  0.00000000E+00
  0.00000000E+00  0.00000000E+00  0.00000000E+00
  0.00000000E+00  0.00000000E+00  0.00000000E+00
  0.00000000E+00  0.00000000E+00  0.00000000E+00
  0.00000000E+00  0.00000000E+00  0.00000000E+00
  0.00000000E+00  0.00000000E+00  0.00000000E+00
  0.00000000E+00  0.00000000E+00  0.00000000E+00
  0.00000000E+00  0.00000000E+00  0.00000000E+00
  0.00000000E+00  0.00000000E+00  0.00000000E+00
  0.00000000E+00  0.00000000E+00  0.00000000E+00
  0.00000000E+00  0.00000000E+00  0.00000000E+00
  0.00000000E+00  0.00000000E+00  0.00000000E+00
  0.00000000E+00  0.00000000E+00  0.00000000E+00
  0.00000000E+00  0.00000000E+00  0.00000000E+00
  0.00000000E+00  0.00000000E+00  0.00000000E+00
  0.00000000E+00  0.00000000E+00  0.00000000E+00
  0.00000000E+00  0.00000000E+00  0.00000000E+00
  0.00000000E+00  0.00000000E+00  0.00000000E+00
  0.00000000E+00  0.00000000E+00  0.00000000E+00
  0.00000000E+00  0.00000000E+00  0.00000000E+00
  0.00000000E+00  0.00000000E+00  0.00000000E+00
