methane-low                             
   1.01961282200000     
    11.7079000473000008    0.0000000000000000    0.0000000000000000
     0.0000000000000000    8.1892995834000004    0.0000000000000000
     0.0000000000000000    0.0000000000000000    8.1842002868999995
   H    C 
    64    16
Direct
  0.0749966930842092  0.7787612207599279  0.2607725443164639
  0.9250033289157855  0.2212387792400720  0.7392274846835351
  0.9250033289157855  0.7212387792400721  0.7607725153164649
  0.0749966930842092  0.2787612207599280  0.2392274556835361
  0.9250033289157855  0.2787612207599280  0.2392274556835361
  0.0749966930842092  0.7212387792400721  0.7607725153164649
  0.0749966930842092  0.2212387792400720  0.7392274846835351
  0.9250033289157855  0.7787612207599279  0.2607725443164639
  0.5749966710842145  0.2787612207599280  0.2607725443164639
  0.4250032999157867  0.7212387792400721  0.7392274846835351
  0.4250032999157867  0.2212387792400720  0.7607725153164649
  0.5749966710842145  0.7787612207599279  0.2392274556835361
  0.4250032999157867  0.7787612207599279  0.2392274556835361
  0.5749966710842145  0.2212387792400720  0.7607725153164649
  0.5749966710842145  0.7212387792400721  0.7392274846835351
  0.4250032999157867  0.2787612207599280  0.2607725443164639
  0.8024060974494293  0.5826435185880782  0.9319999470001759
  0.1975939025505706  0.4173564814119219  0.0680000529998241
  0.1975939025505706  0.9173564814119218  0.4319999470001759
  0.8024060974494293  0.0826435185880782  0.5680000529998241
  0.1975939025505706  0.0826435185880782  0.5680000529998241
  0.8024060974494293  0.9173564814119218  0.4319999470001759
  0.8024060974494293  0.4173564814119219  0.0680000529998241
  0.1975939025505706  0.5826435185880782  0.9319999470001759
  0.3024060974494294  0.0826435185880782  0.9319999470001759
  0.6975939025505707  0.9173564814119218  0.0680000529998241
  0.6975939025505707  0.4173564814119219  0.4319999470001759
  0.3024060974494294  0.5826435185880782  0.5680000529998241
  0.6975939025505707  0.5826435185880782  0.5680000529998241
  0.3024060974494294  0.4173564814119219  0.4319999470001759
  0.3024060974494294  0.9173564814119218  0.0680000529998241
  0.6975939025505707  0.0826435185880782  0.9319999470001759
  0.6963988333695362  0.5680907500052926  0.0828211087149995
  0.3036011666304636  0.4319092499947071  0.9171788912850007
  0.3036011666304636  0.9319092499947074  0.5828211087149993
  0.6963988333695362  0.0680907500052999  0.4171788912850005
  0.3036011666304636  0.0680907500052999  0.4171788912850005
  0.6963988333695362  0.9319092499947074  0.5828211087149993
  0.6963988333695362  0.4319092499947071  0.9171788912850007
  0.3036011666304636  0.5680907500052926  0.0828211087149995
  0.1963988333695365  0.0680907500052999  0.0828211087149995
  0.8036011666304638  0.9319092499947074  0.9171788912850007
  0.8036011666304638  0.4319092499947071  0.5828211087149993
  0.1963988333695365  0.5680907500052926  0.4171788912850005
  0.8036011666304638  0.5680907500052926  0.4171788912850005
  0.1963988333695365  0.4319092499947071  0.5828211087149993
  0.1963988333695365  0.9319092499947074  0.9171788912850007
  0.8036011666304638  0.0680907500052999  0.0828211087149995
 -0.0000000000000000  0.6013179726156438  0.2060651474098665
 -0.0000000000000000  0.3986820273843563  0.7939348225901309
 -0.0000000000000000  0.8986820273843562  0.7060651774098691
 -0.0000000000000000  0.1013179726156438  0.2939348525901334
  0.5000000000000000  0.1013179726156438  0.2060651474098665
  0.5000000000000000  0.8986820273843562  0.7939348225901309
  0.5000000000000000  0.3986820273843563  0.7060651774098691
  0.5000000000000000  0.6013179726156438  0.2939348525901334
 -0.0000000000000000  0.2284948822863051  0.9244369657413682
 -0.0000000000000000  0.7715051177136949  0.0755630342586317
 -0.0000000000000000  0.2715051177136948  0.4244369657413684
 -0.0000000000000000  0.7284948822863051  0.5755630342586318
  0.5000000000000000  0.7284948822863051  0.9244369657413682
  0.5000000000000000  0.2715051177136948  0.0755630342586317
  0.5000000000000000  0.7715051177136949  0.4244369657413684
  0.5000000000000000  0.2284948822863051  0.5755630342586318
 -0.0000000000000000  0.2324197457759438  0.2991549834480320
 -0.0000000000000000  0.7675802542240563  0.7008450015519700
 -0.0000000000000000  0.2675802542240562  0.7991549984480300
 -0.0000000000000000  0.7324197457759437  0.2008450015519703
  0.5000000000000000  0.7324197457759437  0.2991549834480320
  0.5000000000000000  0.2675802542240562  0.7008450015519700
  0.5000000000000000  0.7675802542240563  0.7991549984480300
  0.5000000000000000  0.2324197457759438  0.2008450015519703
  0.7493158827196742  0.5000000000000000  0.0000000000000000
  0.2506841172803260  0.5000000000000000  0.0000000000000000
  0.2506841172803260  0.0000000000000000  0.5000000000000000
  0.7493158827196742  0.0000000000000000  0.5000000000000000
  0.2493158827196740  0.0000000000000000  0.0000000000000000
  0.7506841172803258  0.0000000000000000  0.0000000000000000
  0.7506841172803258  0.5000000000000000  0.5000000000000000
  0.2493158827196740  0.5000000000000000  0.5000000000000000
 
  0.00000000E+00  0.00000000E+00  0.00000000E+00
  0.00000000E+00  0.00000000E+00  0.00000000E+00
  0.00000000E+00  0.00000000E+00  0.00000000E+00
  0.00000000E+00  0.00000000E+00  0.00000000E+00
  0.00000000E+00  0.00000000E+00  0.00000000E+00
  0.00000000E+00  0.00000000E+00  0.00000000E+00
  0.00000000E+00  0.00000000E+00  0.00000000E+00
  0.00000000E+00  0.00000000E+00  0.00000000E+00
  0.00000000E+00  0.00000000E+00  0.00000000E+00
  0.00000000E+00  0.00000000E+00  0.00000000E+00
  0.00000000E+00  0.00000000E+00  0.00000000E+00
  0.00000000E+00  0.00000000E+00  0.00000000E+00
  0.00000000E+00  0.00000000E+00  0.00000000E+00
  0.00000000E+00  0.00000000E+00  0.00000000E+00
  0.00000000E+00  0.00000000E+00  0.00000000E+00
  0.00000000E+00  0.00000000E+00  0.00000000E+00
  0.00000000E+00  0.00000000E+00  0.00000000E+00
  0.00000000E+00  0.00000000E+00  0.00000000E+00
  0.00000000E+00  0.00000000E+00  0.00000000E+00
  0.00000000E+00  0.00000000E+00  0.00000000E+00
  0.00000000E+00  0.00000000E+00  0.00000000E+00
  0.00000000E+00  0.00000000E+00  0.00000000E+00
  0.00000000E+00  0.00000000E+00  0.00000000E+00
  0.00000000E+00  0.00000000E+00  0.00000000E+00
  0.00000000E+00  0.00000000E+00  0.00000000E+00
  0.00000000E+00  0.00000000E+00  0.00000000E+00
  0.00000000E+00  0.00000000E+00  0.00000000E+00
  0.00000000E+00  0.00000000E+00  0.00000000E+00
  0.00000000E+00  0.00000000E+00  0.00000000E+00
  0.00000000E+00  0.00000000E+00  0.00000000E+00
  0.00000000E+00  0.00000000E+00  0.00000000E+00
  0.00000000E+00  0.00000000E+00  0.00000000E+00
  0.00000000E+00  0.00000000E+00  0.00000000E+00
  0.00000000E+00  0.00000000E+00  0.00000000E+00
  0.00000000E+00  0.00000000E+00  0.00000000E+00
  0.00000000E+00  0.00000000E+00  0.00000000E+00
  0.00000000E+00  0.00000000E+00  0.00000000E+00
  0.00000000E+00  0.00000000E+00  0.00000000E+00
  0.00000000E+00  0.00000000E+00  0.00000000E+00
  0.00000000E+00  0.00000000E+00  0.00000000E+00
  0.00000000E+00  0.00000000E+00  0.00000000E+00
  0.00000000E+00  0.00000000E+00  0.00000000E+00
  0.00000000E+00  0.00000000E+00  0.00000000E+00
  0.00000000E+00  0.00000000E+00  0.00000000E+00
  0.00000000E+00  0.00000000E+00  0.00000000E+00
  0.00000000E+00  0.00000000E+00  0.00000000E+00
  0.00000000E+00  0.00000000E+00  0.00000000E+00
  0.00000000E+00  0.00000000E+00  0.00000000E+00
  0.00000000E+00  0.00000000E+00  0.00000000E+00
  0.00000000E+00  0.00000000E+00  0.00000000E+00
  0.00000000E+00  0.00000000E+00  0.00000000E+00
  0.00000000E+00  0.00000000E+00  0.00000000E+00
  0.00000000E+00  0.00000000E+00  0.00000000E+00
  0.00000000E+00  0.00000000E+00  0.00000000E+00
  0.00000000E+00  0.00000000E+00  0.00000000E+00
  0.00000000E+00  0.00000000E+00  0.00000000E+00
  0.00000000E+00  0.00000000E+00  0.00000000E+00
  0.00000000E+00  0.00000000E+00  0.00000000E+00
  0.00000000E+00  0.00000000E+00  0.00000000E+00
  0.00000000E+00  0.00000000E+00  0.00000000E+00
  0.00000000E+00  0.00000000E+00  0.00000000E+00
  0.00000000E+00  0.00000000E+00  0.00000000E+00
  0.00000000E+00  0.00000000E+00  0.00000000E+00
  0.00000000E+00  0.00000000E+00  0.00000000E+00
  0.00000000E+00  0.00000000E+00  0.00000000E+00
  0.00000000E+00  0.00000000E+00  0.00000000E+00
  0.00000000E+00  0.00000000E+00  0.00000000E+00
  0.00000000E+00  0.00000000E+00  0.00000000E+00
  0.00000000E+00  0.00000000E+00  0.00000000E+00
  0.00000000E+00  0.00000000E+00  0.00000000E+00
  0.00000000E+00  0.00000000E+00  0.00000000E+00
  0.00000000E+00  0.00000000E+00  0.00000000E+00
  0.00000000E+00  0.00000000E+00  0.00000000E+00
  0.00000000E+00  0.00000000E+00  0.00000000E+00
  0.00000000E+00  0.00000000E+00  0.00000000E+00
  0.00000000E+00  0.00000000E+00  0.00000000E+00
  0.00000000E+00  0.00000000E+00  0.00000000E+00
  0.00000000E+00  0.00000000E+00  0.00000000E+00
  0.00000000E+00  0.00000000E+00  0.00000000E+00
  0.00000000E+00  0.00000000E+00  0.00000000E+00
