C 
   1.0
     4.9223999978000004    0.0000000000000000    0.0000000000000000
    -2.4611999988000002    4.2629234456000002    0.0000000000000000
     0.0000000000000000    0.0000000000000000   13.3442001341999994
  32
Direct
  0.0000000000000000  0.0000000000000000  0.1250000000000000
  0.5000000000000000  0.0000000000000000  0.1250000000000000
  0.0000000000000000  0.5000000000000000  0.1250000000000000
  0.5000000000000000  0.5000000000000000  0.1250000000000000
  0.0000000000000000  0.0000000000000000  0.6250000000000000
  0.5000000000000000  0.0000000000000000  0.6250000000000000
  0.0000000000000000  0.5000000000000000  0.6250000000000000
  0.5000000000000000  0.5000000000000000  0.6250000000000000
  0.0000000000000000  0.0000000000000000  0.3750000000000000
  0.5000000000000000  0.0000000000000000  0.3750000000000000
  0.0000000000000000  0.5000000000000000  0.3750000000000000
  0.5000000000000000  0.5000000000000000  0.3750000000000000
  0.0000000000000000  0.0000000000000000  0.8750000000000000
  0.5000000000000000  0.0000000000000000  0.8750000000000000
  0.0000000000000000  0.5000000000000000  0.8750000000000000
  0.5000000000000000  0.5000000000000000  0.8750000000000000
  0.1666650025000000  0.3333350120000000  0.1250000000000000
  0.6666650025000000  0.3333350120000000  0.1250000000000000
  0.1666650025000000  0.8333350120000000  0.1250000000000000
  0.6666650025000000  0.8333350120000000  0.1250000000000000
  0.1666650025000000  0.3333350120000000  0.6250000000000000
  0.6666650025000000  0.3333350120000000  0.6250000000000000
  0.1666650025000000  0.8333350120000000  0.6250000000000000
  0.6666650025000000  0.8333350120000000  0.6250000000000000
  0.3333350120000000  0.1666650025000000  0.3750000000000000
  0.8333350120000000  0.1666650025000000  0.3750000000000000
  0.3333350120000000  0.6666650025000000  0.3750000000000000
  0.8333350120000000  0.6666650025000000  0.3750000000000000
  0.3333350120000000  0.1666650025000000  0.8750000000000000
  0.8333350120000000  0.1666650025000000  0.8750000000000000
  0.3333350120000000  0.6666650025000000  0.8750000000000000
  0.8333350120000000  0.6666650025000000  0.8750000000000000