C 
   1.0
     4.9343108847663757   -0.0002224000391058    0.0000000000000000
    -2.4673480463666095    4.2731273762740685    0.0000000000000000
     0.0000000000000000    0.0000000000000000   12.7789103940000004
  32
Direct
  0.4999998485834176  0.0000001745863862  0.1250000000000000
  0.9999998485834176  0.0000001745863862  0.1250000000000000
  0.4999998485834176  0.5000001745863862  0.1250000000000000
  0.9999998485834176  0.5000001745863862  0.1250000000000000
  0.4999998485834176  0.0000001745863862  0.6250000000000000
  0.9999998485834176  0.0000001745863862  0.6250000000000000
  0.4999998485834176  0.5000001745863862  0.6250000000000000
  0.9999998485834176  0.5000001745863862  0.6250000000000000
  0.0000001745863862  0.4999998485834176  0.3750000000000000
  0.5000001745863862  0.4999998485834176  0.3750000000000000
  0.0000001745863862  0.9999998485834176  0.3750000000000000
  0.5000001745863862  0.9999998485834176  0.3750000000000000
  0.0000001745863862  0.4999998485834176  0.8750000000000000
  0.5000001745863862  0.4999998485834176  0.8750000000000000
  0.0000001745863862  0.9999998485834176  0.8750000000000000
  0.5000001745863862  0.9999998485834176  0.8750000000000000
  0.1666494649783594  0.3333505263518362  0.1250000000000000
  0.6666494649783594  0.3333505263518362  0.1250000000000000
  0.1666494649783594  0.8333505263518362  0.1250000000000000
  0.6666494649783594  0.8333505263518362  0.1250000000000000
  0.1666494649783594  0.3333505263518362  0.6250000000000000
  0.6666494649783594  0.3333505263518362  0.6250000000000000
  0.1666494649783594  0.8333505263518362  0.6250000000000000
  0.6666494649783594  0.8333505263518362  0.6250000000000000
  0.3333505263518362  0.1666494649783594  0.3750000000000000
  0.8333505263518362  0.1666494649783594  0.3750000000000000
  0.3333505263518362  0.6666494649783594  0.3750000000000000
  0.8333505263518362  0.6666494649783594  0.3750000000000000
  0.3333505263518362  0.1666494649783594  0.8750000000000000
  0.8333505263518362  0.1666494649783594  0.8750000000000000
  0.3333505263518362  0.6666494649783594  0.8750000000000000
  0.8333505263518362  0.6666494649783594  0.8750000000000000