C                                       
   1.00000000000000     
     5.3352160587640860    0.0000000000000000    0.0000000000000000
     2.6676080292800819    4.6204326415876995    0.0000000000000000
     2.6676080292800819    1.5401442137945924    4.3561856703357460
   C 
    16
Direct
  0.0018743383379132  0.0000000000000000  0.0000000000000000
  0.5000000000000000  0.0000000000000000  0.0000000000000000
  0.0000000000000000  0.5000000000000000  0.0000000000000000
  0.5000000000000000  0.5000000000000000  0.0000000000000000
  0.0000000000000000  0.0000000000000000  0.5000000000000000
  0.5000000000000000  0.0000000000000000  0.5000000000000000
  0.0000000000000000  0.5000000000000000  0.5000000000000000
  0.5000000000000000  0.5000000000000000  0.5000000000000000
  0.1250000000000000  0.1250000000000000  0.1249999925000012
  0.6250000000000000  0.1250000000000000  0.1249999925000012
  0.1250000000000000  0.6250000000000000  0.1249999925000012
  0.6250000000000000  0.6250000000000000  0.1249999925000012
  0.1250000000000000  0.1250000000000000  0.6249999925000012
  0.6250000000000000  0.1250000000000000  0.6249999925000012
  0.1250000000000000  0.6250000000000000  0.6249999925000012
  0.6250000000000000  0.6250000000000000  0.6249999925000012
 
  0.00000000E+00  0.00000000E+00  0.00000000E+00
  0.00000000E+00  0.00000000E+00  0.00000000E+00
  0.00000000E+00  0.00000000E+00  0.00000000E+00
  0.00000000E+00  0.00000000E+00  0.00000000E+00
  0.00000000E+00  0.00000000E+00  0.00000000E+00
  0.00000000E+00  0.00000000E+00  0.00000000E+00
  0.00000000E+00  0.00000000E+00  0.00000000E+00
  0.00000000E+00  0.00000000E+00  0.00000000E+00
  0.00000000E+00  0.00000000E+00  0.00000000E+00
  0.00000000E+00  0.00000000E+00  0.00000000E+00
  0.00000000E+00  0.00000000E+00  0.00000000E+00
  0.00000000E+00  0.00000000E+00  0.00000000E+00
  0.00000000E+00  0.00000000E+00  0.00000000E+00
  0.00000000E+00  0.00000000E+00  0.00000000E+00
  0.00000000E+00  0.00000000E+00  0.00000000E+00
  0.00000000E+00  0.00000000E+00  0.00000000E+00
