C                                       
   1.00000000000000     
     4.9328744979918744   -0.0019192859628064    0.0000000000000000
    -2.4680993992966123    4.2710349858760690    0.0000000000000000
     0.0000000000000000    0.0000000000000000   12.7329613980397394
   C 
    32
Direct
  0.4996733044495798  0.0003267187202241  0.1250000000000000
  0.9996733044495798  0.0003267187202241  0.1250000000000000
  0.4996733044495798  0.5003267187202241  0.1250000000000000
  0.9996733044495798  0.5003267187202241  0.1250000000000000
  0.4996733044495798  0.0003267187202241  0.6250000000000000
  0.9996733044495798  0.0003267187202241  0.6250000000000000
  0.4996733044495798  0.5003267187202241  0.6250000000000000
  0.9996733044495798  0.5003267187202241  0.6250000000000000
  0.0003267187202241  0.4996733044495798  0.3750000000000000
  0.5003267187202241  0.4996733044495798  0.3750000000000000
  0.0003267187202241  0.9996733044495798  0.3750000000000000
  0.5003267187202241  0.9996733044495798  0.3750000000000000
  0.0003267187202241  0.4996733044495798  0.8750000000000000
  0.5003267187202241  0.4996733044495798  0.8750000000000000
  0.0003267187202241  0.9996733044495798  0.8750000000000000
  0.5003267187202241  0.9996733044495798  0.8750000000000000
  0.1655601349733260  0.3337075288569835  0.1242676725001175
  0.6662924624732085  0.3337075288569835  0.1250000000000000
  0.1662924624732085  0.8337075288569835  0.1250000000000000
  0.6662924624732085  0.8337075288569835  0.1250000000000000
  0.1662924624732085  0.3337075288569835  0.6250000000000000
  0.6662924624732085  0.3337075288569835  0.6250000000000000
  0.1662924624732085  0.8337075288569835  0.6250000000000000
  0.6662924624732085  0.8337075288569835  0.6250000000000000
  0.3337075288569835  0.1662924624732156  0.3750000000000000
  0.8337075288569835  0.1662924624732085  0.3750000000000000
  0.3337075288569835  0.6662924624732085  0.3750000000000000
  0.8337075288569835  0.6662924624732085  0.3750000000000000
  0.3337075288569835  0.1662924624732156  0.8750000000000000
  0.8337075288569835  0.1662924624732085  0.8750000000000000
  0.3337075288569835  0.6662924624732085  0.8750000000000000
  0.8337075288569835  0.6662924624732085  0.8750000000000000
 
  0.00000000E+00  0.00000000E+00  0.00000000E+00
  0.00000000E+00  0.00000000E+00  0.00000000E+00
  0.00000000E+00  0.00000000E+00  0.00000000E+00
  0.00000000E+00  0.00000000E+00  0.00000000E+00
  0.00000000E+00  0.00000000E+00  0.00000000E+00
  0.00000000E+00  0.00000000E+00  0.00000000E+00
  0.00000000E+00  0.00000000E+00  0.00000000E+00
  0.00000000E+00  0.00000000E+00  0.00000000E+00
  0.00000000E+00  0.00000000E+00  0.00000000E+00
  0.00000000E+00  0.00000000E+00  0.00000000E+00
  0.00000000E+00  0.00000000E+00  0.00000000E+00
  0.00000000E+00  0.00000000E+00  0.00000000E+00
  0.00000000E+00  0.00000000E+00  0.00000000E+00
  0.00000000E+00  0.00000000E+00  0.00000000E+00
  0.00000000E+00  0.00000000E+00  0.00000000E+00
  0.00000000E+00  0.00000000E+00  0.00000000E+00
  0.00000000E+00  0.00000000E+00  0.00000000E+00
  0.00000000E+00  0.00000000E+00  0.00000000E+00
  0.00000000E+00  0.00000000E+00  0.00000000E+00
  0.00000000E+00  0.00000000E+00  0.00000000E+00
  0.00000000E+00  0.00000000E+00  0.00000000E+00
  0.00000000E+00  0.00000000E+00  0.00000000E+00
  0.00000000E+00  0.00000000E+00  0.00000000E+00
  0.00000000E+00  0.00000000E+00  0.00000000E+00
  0.00000000E+00  0.00000000E+00  0.00000000E+00
  0.00000000E+00  0.00000000E+00  0.00000000E+00
  0.00000000E+00  0.00000000E+00  0.00000000E+00
  0.00000000E+00  0.00000000E+00  0.00000000E+00
  0.00000000E+00  0.00000000E+00  0.00000000E+00
  0.00000000E+00  0.00000000E+00  0.00000000E+00
  0.00000000E+00  0.00000000E+00  0.00000000E+00
  0.00000000E+00  0.00000000E+00  0.00000000E+00
