C
   1.0
     5.0891587581954800    0.0000000000000000    0.0000000000000000
     2.5445793790004814    4.4073407685077735    0.0000000000000000
     2.5445793790004814    1.4691135894377521    4.1552807257163602
  16
Direct
  0.0019649612981509  0.0000000000000000  0.0000000000000000
  0.5000000000000000  0.0000000000000000  0.0000000000000000
 -0.0000000000000000  0.5000000000000000  0.0000000000000000
  0.5000000000000000  0.5000000000000000  0.0000000000000000
  0.0000000000000000  0.0000000000000000  0.5000000000000000
  0.5000000000000000  0.0000000000000000  0.5000000000000000
 -0.0000000000000000  0.5000000000000000  0.5000000000000000
  0.5000000000000001  0.5000000000000000  0.5000000000000000
  0.1250000000000000  0.1250000000000000  0.1249999925000000
  0.6250000000000000  0.1250000000000000  0.1249999925000000
  0.1250000000000000  0.6250000000000001  0.1249999925000000
  0.6250000000000000  0.6250000000000001  0.1249999925000000
  0.1250000000000000  0.1250000000000000  0.6249999925000000
  0.6250000000000000  0.1250000000000000  0.6249999925000000
  0.1249999999999999  0.6250000000000000  0.6249999925000000
  0.6250000000000001  0.6250000000000000  0.6249999925000000
