C
   1.0
     5.3014479669898176    0.0000000000000000    0.0000000000000000
     2.6507239833935929    4.5911886162737368    0.0000000000000000
     2.6507239833935929    1.5303962053570350    4.3286141388585877
  16
Direct
  0.0018862771194335  0.0000000000000000  0.0000000000000000
  0.5000000000000000  0.0000000000000000  0.0000000000000000
  0.0000000000000000  0.4999999999999999  0.0000000000000000
  0.5000000000000000  0.4999999999999999  0.0000000000000000
 -0.0000000000000000  0.0000000000000000  0.5000000000000000
  0.5000000000000000  0.0000000000000000  0.5000000000000000
 -0.0000000000000000  0.5000000000000000  0.5000000000000000
  0.5000000000000002  0.5000000000000000  0.5000000000000000
  0.1250000000000000  0.1250000000000000  0.1249999925000000
  0.6250000000000002  0.1250000000000000  0.1249999925000000
  0.1250000000000001  0.6250000000000000  0.1249999925000000
  0.6250000000000000  0.6250000000000000  0.1249999925000000
  0.1250000000000000  0.1250000000000000  0.6249999925000000
  0.6250000000000001  0.1250000000000000  0.6249999925000000
  0.1250000000000001  0.6249999999999999  0.6249999925000000
  0.6249999999999999  0.6249999999999999  0.6249999925000000
