CIF file                                
   1.00000000000000     
     2.4664372489959372   -0.0009596429814032    0.0000000000000000
    -1.2340496996483061    2.1355174929380345    0.0000000000000000
     0.0000000000000000    0.0000000000000000    2.6527002912582800
   C 
     4
Direct
  0.9992885380861175  0.0007115082534902  0.2500000000000000
  0.0007115082534902  0.9992885380861175  0.7500000000000000
  0.3328172880836631  0.6671826945767281  0.2500000000000000
  0.6671826945767281  0.3328172880836631  0.7500000000000000
 
  0.00000000E+00  0.00000000E+00  0.00000000E+00
  0.00000000E+00  0.00000000E+00  0.00000000E+00
  0.00000000E+00  0.00000000E+00  0.00000000E+00
  0.00000000E+00  0.00000000E+00  0.00000000E+00
