methane-high                            
   1.00000000000000     
    11.7079000473000008    0.0000000000000000    0.0000000000000000
     0.0000000000000000    8.1892995834000004    0.0000000000000000
     0.0000000000000000    0.0000000000000000    8.1842002868999995
   H    C 
    56    16
Direct
  0.8230298743065223  0.5966223393772975  0.9181651815012942
  0.1769701256934776  0.4033776606227025  0.0818348184987059
  0.1769701256934776  0.9033776606227025  0.4181651815012941
  0.8230298743065223  0.0966223393772974  0.5818348184987058
  0.1769701256934776  0.0966223393772974  0.5818348184987058
  0.8230298743065223  0.9033776606227025  0.4181651815012941
  0.8230298743065223  0.4033776606227025  0.0818348184987059
  0.1769701256934776  0.5966223393772975  0.9181651815012942
  0.3230298743065224  0.0966223393772974  0.9181651815012942
  0.6769701256934777  0.9033776606227025  0.0818348184987059
  0.6769701256934777  0.4033776606227026  0.4181651815012941
  0.3230298743065224  0.5966223393772975  0.5818348184987058
  0.6769701256934777  0.5966223393772975  0.5818348184987058
  0.3230298743065224  0.4033776606227026  0.4181651815012941
  0.3230298743065224  0.9033776606227025  0.0818348184987059
  0.6769701256934777  0.0966223393772974  0.9181651815012942
  0.6798569730436995  0.5869624512971220  0.1031886728149611
  0.3201430269563005  0.4130375487028780  0.8968113271850389
  0.3201430269563005  0.9130375487028780  0.6031886728149611
  0.6798569730436995  0.0869624512971220  0.3968113271850389
  0.3201430269563005  0.0869624512971220  0.3968113271850389
  0.6798569730436995  0.9130375487028780  0.6031886728149611
  0.6798569730436995  0.4130375487028780  0.8968113271850389
  0.3201430269563005  0.5869624512971220  0.1031886728149611
  0.1798569730436995  0.0869624512971220  0.1031886728149611
  0.8201430269563005  0.9130375487028780  0.8968113271850389
  0.8201430269563005  0.4130375487028780  0.6031886728149611
  0.1798569730436995  0.5869624512971220  0.3968113271850389
  0.8201430269563005  0.5869624512971220  0.3968113271850389
  0.1798569730436995  0.4130375487028780  0.6031886728149611
  0.1798569730436995  0.9130375487028780  0.8968113271850389
  0.8201430269563005  0.0869624512971220  0.1031886728149611
  0.0662988186438805  0.7847952888377135  0.1627045549619597
  0.9337012033561142  0.2152047111622863  0.8372954740380391
  0.9337012033561142  0.7152047111622865  0.6627045259619609
  0.0662988186438805  0.2847952888377137  0.3372954450380404
  0.9337012033561142  0.2847952888377137  0.3372954450380404
  0.0662988186438805  0.7152047111622865  0.6627045259619609
  0.0662988186438805  0.2152047111622863  0.8372954740380391
  0.9337012033561142  0.7847952888377135  0.1627045549619596
  0.5662987966438858  0.2847952888377137  0.1627045549619596
  0.4337011743561153  0.7152047111622865  0.8372954740380391
  0.4337011743561153  0.2152047111622863  0.6627045259619609
  0.5662987966438858  0.7847952888377135  0.3372954450380404
  0.4337011743561153  0.7847952888377135  0.3372954450380404
  0.5662987966438858  0.2152047111622863  0.6627045259619609
  0.5662987966438858  0.7152047111622865  0.8372954740380391
  0.4337011743561153  0.2847952888377137  0.1627045549619596
 -0.0000000000000000  0.6097243721637456  0.1785850329251756
 -0.0000000000000000  0.3902756278362544  0.8214149370748218
 -0.0000000000000000  0.8902756278362544  0.6785850629251782
 -0.0000000000000000  0.1097243721637457  0.3214149670748245
  0.5000000000000000  0.1097243721637457  0.1785850329251756
  0.5000000000000000  0.8902756278362544  0.8214149370748218
  0.5000000000000000  0.3902756278362544  0.6785850629251782
  0.5000000000000000  0.6097243721637456  0.3214149670748245
 -0.0000000000000000  0.7349502705489247  0.2902878797786916
 -0.0000000000000000  0.2650497294510754  0.7097121052213108
 -0.0000000000000000  0.7650497294510753  0.7902878947786892
 -0.0000000000000000  0.2349502705489246  0.2097121052213107
  0.5000000000000000  0.2349502705489246  0.2902878797786916
  0.5000000000000000  0.7650497294510753  0.7097121052213108
  0.5000000000000000  0.2650497294510754  0.7902878947786892
  0.5000000000000000  0.7349502705489247  0.2097121052213107
  0.7498209171195341  0.5000000000000000 -0.0000000000000000
  0.2501790828804659  0.5000000000000000 -0.0000000000000000
  0.2501790828804659 -0.0000000000000000  0.5000000000000000
  0.7498209171195341 -0.0000000000000000  0.5000000000000000
  0.2498209171195341 -0.0000000000000000 -0.0000000000000000
  0.7501790828804659 -0.0000000000000000 -0.0000000000000000
  0.7501790828804659  0.5000000000000000  0.5000000000000000
  0.2498209171195341  0.5000000000000000  0.5000000000000000
 
  0.00000000E+00  0.00000000E+00  0.00000000E+00
  0.00000000E+00  0.00000000E+00  0.00000000E+00
  0.00000000E+00  0.00000000E+00  0.00000000E+00
  0.00000000E+00  0.00000000E+00  0.00000000E+00
  0.00000000E+00  0.00000000E+00  0.00000000E+00
  0.00000000E+00  0.00000000E+00  0.00000000E+00
  0.00000000E+00  0.00000000E+00  0.00000000E+00
  0.00000000E+00  0.00000000E+00  0.00000000E+00
  0.00000000E+00  0.00000000E+00  0.00000000E+00
  0.00000000E+00  0.00000000E+00  0.00000000E+00
  0.00000000E+00  0.00000000E+00  0.00000000E+00
  0.00000000E+00  0.00000000E+00  0.00000000E+00
  0.00000000E+00  0.00000000E+00  0.00000000E+00
  0.00000000E+00  0.00000000E+00  0.00000000E+00
  0.00000000E+00  0.00000000E+00  0.00000000E+00
  0.00000000E+00  0.00000000E+00  0.00000000E+00
  0.00000000E+00  0.00000000E+00  0.00000000E+00
  0.00000000E+00  0.00000000E+00  0.00000000E+00
  0.00000000E+00  0.00000000E+00  0.00000000E+00
  0.00000000E+00  0.00000000E+00  0.00000000E+00
  0.00000000E+00  0.00000000E+00  0.00000000E+00
  0.00000000E+00  0.00000000E+00  0.00000000E+00
  0.00000000E+00  0.00000000E+00  0.00000000E+00
  0.00000000E+00  0.00000000E+00  0.00000000E+00
  0.00000000E+00  0.00000000E+00  0.00000000E+00
  0.00000000E+00  0.00000000E+00  0.00000000E+00
  0.00000000E+00  0.00000000E+00  0.00000000E+00
  0.00000000E+00  0.00000000E+00  0.00000000E+00
  0.00000000E+00  0.00000000E+00  0.00000000E+00
  0.00000000E+00  0.00000000E+00  0.00000000E+00
  0.00000000E+00  0.00000000E+00  0.00000000E+00
  0.00000000E+00  0.00000000E+00  0.00000000E+00
  0.00000000E+00  0.00000000E+00  0.00000000E+00
  0.00000000E+00  0.00000000E+00  0.00000000E+00
  0.00000000E+00  0.00000000E+00  0.00000000E+00
  0.00000000E+00  0.00000000E+00  0.00000000E+00
  0.00000000E+00  0.00000000E+00  0.00000000E+00
  0.00000000E+00  0.00000000E+00  0.00000000E+00
  0.00000000E+00  0.00000000E+00  0.00000000E+00
  0.00000000E+00  0.00000000E+00  0.00000000E+00
  0.00000000E+00  0.00000000E+00  0.00000000E+00
  0.00000000E+00  0.00000000E+00  0.00000000E+00
  0.00000000E+00  0.00000000E+00  0.00000000E+00
  0.00000000E+00  0.00000000E+00  0.00000000E+00
  0.00000000E+00  0.00000000E+00  0.00000000E+00
  0.00000000E+00  0.00000000E+00  0.00000000E+00
  0.00000000E+00  0.00000000E+00  0.00000000E+00
  0.00000000E+00  0.00000000E+00  0.00000000E+00
  0.00000000E+00  0.00000000E+00  0.00000000E+00
  0.00000000E+00  0.00000000E+00  0.00000000E+00
  0.00000000E+00  0.00000000E+00  0.00000000E+00
  0.00000000E+00  0.00000000E+00  0.00000000E+00
  0.00000000E+00  0.00000000E+00  0.00000000E+00
  0.00000000E+00  0.00000000E+00  0.00000000E+00
  0.00000000E+00  0.00000000E+00  0.00000000E+00
  0.00000000E+00  0.00000000E+00  0.00000000E+00
  0.00000000E+00  0.00000000E+00  0.00000000E+00
  0.00000000E+00  0.00000000E+00  0.00000000E+00
  0.00000000E+00  0.00000000E+00  0.00000000E+00
  0.00000000E+00  0.00000000E+00  0.00000000E+00
  0.00000000E+00  0.00000000E+00  0.00000000E+00
  0.00000000E+00  0.00000000E+00  0.00000000E+00
  0.00000000E+00  0.00000000E+00  0.00000000E+00
  0.00000000E+00  0.00000000E+00  0.00000000E+00
  0.00000000E+00  0.00000000E+00  0.00000000E+00
  0.00000000E+00  0.00000000E+00  0.00000000E+00
  0.00000000E+00  0.00000000E+00  0.00000000E+00
  0.00000000E+00  0.00000000E+00  0.00000000E+00
  0.00000000E+00  0.00000000E+00  0.00000000E+00
  0.00000000E+00  0.00000000E+00  0.00000000E+00
  0.00000000E+00  0.00000000E+00  0.00000000E+00
  0.00000000E+00  0.00000000E+00  0.00000000E+00
