cubic diamond    comment line           
   1.00000000000000     
     2.6162950992999998    0.0000000000000000    0.0000000000000000
     1.3081475495999999    2.2657780197999999    0.0000000000000000
     1.3081475495999999    0.7552593399000000    2.1361960031999998
   C 
     2
Direct
  0.0000000000000000  0.0000000000000000  0.0000000000000000
  0.2500000000000000  0.2500000000000000  0.2499999850000023
 
  0.00000000E+00  0.00000000E+00  0.00000000E+00
  0.00000000E+00  0.00000000E+00  0.00000000E+00
