methane-high                            
   1.00000000000000     
    11.7079000473000008    0.0000000000000000    0.0000000000000000
     0.0000000000000000    8.1892995834000004    0.0000000000000000
     0.0000000000000000    0.0000000000000000    8.1842002868999995
   H    C 
    56    16
Direct
  0.8009999989999983  0.5795000199999976  0.9336000079999991
  0.1990000010000017  0.4204999800000024  0.0663999920000009
  0.1990000010000017  0.9204999800000024  0.4336000079999991
  0.8009999989999983  0.0795000199999976  0.5663999920000009
  0.1990000010000017  0.0795000199999976  0.5663999920000009
  0.8009999989999983  0.9204999800000024  0.4336000079999991
  0.8009999989999983  0.4204999800000024  0.0663999920000009
  0.1990000010000017  0.5795000199999976  0.9336000079999991
  0.3009999989999983  0.0795000199999976  0.9336000079999991
  0.6990000010000017  0.9204999800000024  0.0663999920000009
  0.6990000010000017  0.4204999800000024  0.4336000079999991
  0.3009999989999983  0.5795000199999976  0.5663999920000009
  0.6990000010000017  0.5795000199999976  0.5663999920000009
  0.3009999989999983  0.4204999800000024  0.4336000079999991
  0.3009999989999983  0.9204999800000024  0.0663999920000009
  0.6990000010000017  0.0795000199999976  0.9336000079999991
  0.6985999939999985  0.5662999749999997  0.0795999770000009
  0.3014000060000015  0.4337000250000003  0.9204000229999991
  0.3014000060000015  0.9337000250000003  0.5795999770000009
  0.6985999939999985  0.0662999749999997  0.4204000229999991
  0.3014000060000015  0.0662999749999997  0.4204000229999991
  0.6985999939999985  0.9337000250000003  0.5795999770000009
  0.6985999939999985  0.4337000250000003  0.9204000229999991
  0.3014000060000015  0.5662999749999997  0.0795999770000009
  0.1985999939999985  0.0662999749999997  0.0795999770000009
  0.8014000060000015  0.9337000250000003  0.9204000229999991
  0.8014000060000015  0.4337000250000003  0.5795999770000009
  0.1985999939999985  0.5662999749999997  0.4204000229999991
  0.8014000060000015  0.5662999749999997  0.4204000229999991
  0.1985999939999985  0.4337000250000003  0.5795999770000009
  0.1985999939999985  0.9337000250000003  0.9204000229999991
  0.8014000060000015  0.0662999749999997  0.0795999770000009
  0.0728000029999976  0.7854999899999981  0.1823000010000015
  0.9272000189999972  0.2145000100000019  0.8177000279999973
  0.9272000189999972  0.7145000100000019  0.6822999720000027
  0.0728000029999976  0.2854999899999981  0.3176999989999985
  0.9272000189999972  0.2854999899999981  0.3176999989999985
  0.0728000029999976  0.7145000100000019  0.6822999720000027
  0.0728000029999976  0.2145000100000019  0.8177000279999973
  0.9272000189999972  0.7854999899999981  0.1823000010000015
  0.5727999810000028  0.2854999899999981  0.1823000010000015
  0.4271999899999983  0.7145000100000019  0.8177000279999973
  0.4271999899999983  0.2145000100000019  0.6822999720000027
  0.5727999810000028  0.7854999899999981  0.3176999989999985
  0.4271999899999983  0.7854999899999981  0.3176999989999985
  0.5727999810000028  0.2145000100000019  0.6822999720000027
  0.5727999810000028  0.7145000100000019  0.8177000279999973
  0.4271999899999983  0.2854999899999981  0.1823000010000015
  0.0000000000000000  0.6058999899999975  0.1992000039999979
  0.0000000000000000  0.3941000100000025  0.8007999659999996
  0.0000000000000000  0.8941000100000025  0.6992000340000004
  0.0000000000000000  0.1058999899999975  0.3007999960000021
  0.5000000000000000  0.1058999899999975  0.1992000039999979
  0.5000000000000000  0.8941000100000025  0.8007999659999996
  0.5000000000000000  0.3941000100000025  0.6992000340000004
  0.5000000000000000  0.6058999899999975  0.3007999960000021
  0.0000000000000000  0.7296000119999988  0.2302999939999992
  0.0000000000000000  0.2703999880000012  0.7696999910000031
  0.0000000000000000  0.7703999880000012  0.7303000089999969
  0.0000000000000000  0.2296000119999988  0.2696999910000031
  0.5000000000000000  0.2296000119999988  0.2302999939999992
  0.5000000000000000  0.7703999880000012  0.7696999910000031
  0.5000000000000000  0.2703999880000012  0.7303000089999969
  0.5000000000000000  0.7296000119999988  0.2696999910000031
  0.7498000260000026  0.5000000000000000  0.0000000000000000
  0.2501999739999974  0.5000000000000000  0.0000000000000000
  0.2501999739999974  0.0000000000000000  0.5000000000000000
  0.7498000260000026  0.0000000000000000  0.5000000000000000
  0.2498000260000026  0.0000000000000000  0.0000000000000000
  0.7501999739999974  0.0000000000000000  0.0000000000000000
  0.7501999739999974  0.5000000000000000  0.5000000000000000
  0.2498000260000026  0.5000000000000000  0.5000000000000000
 
  0.00000000E+00  0.00000000E+00  0.00000000E+00
  0.00000000E+00  0.00000000E+00  0.00000000E+00
  0.00000000E+00  0.00000000E+00  0.00000000E+00
  0.00000000E+00  0.00000000E+00  0.00000000E+00
  0.00000000E+00  0.00000000E+00  0.00000000E+00
  0.00000000E+00  0.00000000E+00  0.00000000E+00
  0.00000000E+00  0.00000000E+00  0.00000000E+00
  0.00000000E+00  0.00000000E+00  0.00000000E+00
  0.00000000E+00  0.00000000E+00  0.00000000E+00
  0.00000000E+00  0.00000000E+00  0.00000000E+00
  0.00000000E+00  0.00000000E+00  0.00000000E+00
  0.00000000E+00  0.00000000E+00  0.00000000E+00
  0.00000000E+00  0.00000000E+00  0.00000000E+00
  0.00000000E+00  0.00000000E+00  0.00000000E+00
  0.00000000E+00  0.00000000E+00  0.00000000E+00
  0.00000000E+00  0.00000000E+00  0.00000000E+00
  0.00000000E+00  0.00000000E+00  0.00000000E+00
  0.00000000E+00  0.00000000E+00  0.00000000E+00
  0.00000000E+00  0.00000000E+00  0.00000000E+00
  0.00000000E+00  0.00000000E+00  0.00000000E+00
  0.00000000E+00  0.00000000E+00  0.00000000E+00
  0.00000000E+00  0.00000000E+00  0.00000000E+00
  0.00000000E+00  0.00000000E+00  0.00000000E+00
  0.00000000E+00  0.00000000E+00  0.00000000E+00
  0.00000000E+00  0.00000000E+00  0.00000000E+00
  0.00000000E+00  0.00000000E+00  0.00000000E+00
  0.00000000E+00  0.00000000E+00  0.00000000E+00
  0.00000000E+00  0.00000000E+00  0.00000000E+00
  0.00000000E+00  0.00000000E+00  0.00000000E+00
  0.00000000E+00  0.00000000E+00  0.00000000E+00
  0.00000000E+00  0.00000000E+00  0.00000000E+00
  0.00000000E+00  0.00000000E+00  0.00000000E+00
  0.00000000E+00  0.00000000E+00  0.00000000E+00
  0.00000000E+00  0.00000000E+00  0.00000000E+00
  0.00000000E+00  0.00000000E+00  0.00000000E+00
  0.00000000E+00  0.00000000E+00  0.00000000E+00
  0.00000000E+00  0.00000000E+00  0.00000000E+00
  0.00000000E+00  0.00000000E+00  0.00000000E+00
  0.00000000E+00  0.00000000E+00  0.00000000E+00
  0.00000000E+00  0.00000000E+00  0.00000000E+00
  0.00000000E+00  0.00000000E+00  0.00000000E+00
  0.00000000E+00  0.00000000E+00  0.00000000E+00
  0.00000000E+00  0.00000000E+00  0.00000000E+00
  0.00000000E+00  0.00000000E+00  0.00000000E+00
  0.00000000E+00  0.00000000E+00  0.00000000E+00
  0.00000000E+00  0.00000000E+00  0.00000000E+00
  0.00000000E+00  0.00000000E+00  0.00000000E+00
  0.00000000E+00  0.00000000E+00  0.00000000E+00
  0.00000000E+00  0.00000000E+00  0.00000000E+00
  0.00000000E+00  0.00000000E+00  0.00000000E+00
  0.00000000E+00  0.00000000E+00  0.00000000E+00
  0.00000000E+00  0.00000000E+00  0.00000000E+00
  0.00000000E+00  0.00000000E+00  0.00000000E+00
  0.00000000E+00  0.00000000E+00  0.00000000E+00
  0.00000000E+00  0.00000000E+00  0.00000000E+00
  0.00000000E+00  0.00000000E+00  0.00000000E+00
  0.00000000E+00  0.00000000E+00  0.00000000E+00
  0.00000000E+00  0.00000000E+00  0.00000000E+00
  0.00000000E+00  0.00000000E+00  0.00000000E+00
  0.00000000E+00  0.00000000E+00  0.00000000E+00
  0.00000000E+00  0.00000000E+00  0.00000000E+00
  0.00000000E+00  0.00000000E+00  0.00000000E+00
  0.00000000E+00  0.00000000E+00  0.00000000E+00
  0.00000000E+00  0.00000000E+00  0.00000000E+00
  0.00000000E+00  0.00000000E+00  0.00000000E+00
  0.00000000E+00  0.00000000E+00  0.00000000E+00
  0.00000000E+00  0.00000000E+00  0.00000000E+00
  0.00000000E+00  0.00000000E+00  0.00000000E+00
  0.00000000E+00  0.00000000E+00  0.00000000E+00
  0.00000000E+00  0.00000000E+00  0.00000000E+00
  0.00000000E+00  0.00000000E+00  0.00000000E+00
  0.00000000E+00  0.00000000E+00  0.00000000E+00
