methane-high                            
   1.00000000000000     
    11.7079000473000008    0.0000000000000000    0.0000000000000000
     0.0000000000000000    8.1892995834000004    0.0000000000000000
     0.0000000000000000    0.0000000000000000    8.1842002868999995
   H    C 
    56    16
Direct
  0.8227127604302943  0.5966273777710221  0.9182161309920825
  0.1772872395697057  0.4033726222289779  0.0817838690079175
  0.1772872395697057  0.9033726222289779  0.4182161309920825
  0.8227127604302943  0.0966273777710221  0.5817838690079175
  0.1772872395697057  0.0966273777710221  0.5817838690079175
  0.8227127604302943  0.9033726222289779  0.4182161309920825
  0.8227127604302943  0.4033726222289779  0.0817838690079175
  0.1772872395697057  0.5966273777710221  0.9182161309920825
  0.3227127604302943  0.0966273777710221  0.9182161309920825
  0.6772872395697057  0.9033726222289779  0.0817838690079175
  0.6772872395697057  0.4033726222289779  0.4182161309920825
  0.3227127604302943  0.5966273777710221  0.5817838690079175
  0.6772872395697057  0.5966273777710221  0.5817838690079175
  0.3227127604302943  0.4033726222289779  0.4182161309920825
  0.3227127604302943  0.9033726222289779  0.0817838690079175
  0.6772872395697057  0.0966273777710221  0.9182161309920825
  0.6800639052623839  0.5867982854432335  0.1030263589127441
  0.3199360947376161  0.4132017145567665  0.8969736410872559
  0.3199360947376161  0.9132017145567665  0.6030263589127441
  0.6800639052623839  0.0867982854432335  0.3969736410872559
  0.3199360947376161  0.0867982854432335  0.3969736410872559
  0.6800639052623839  0.9132017145567665  0.6030263589127441
  0.6800639052623839  0.4132017145567665  0.8969736410872559
  0.3199360947376161  0.5867982854432335  0.1030263589127441
  0.1800639052623839  0.0867982854432335  0.1030263589127441
  0.8199360947376161  0.9132017145567665  0.8969736410872559
  0.8199360947376161  0.4132017145567665  0.6030263589127441
  0.1800639052623839  0.5867982854432335  0.3969736410872559
  0.8199360947376161  0.5867982854432335  0.3969736410872559
  0.1800639052623839  0.4132017145567665  0.6030263589127441
  0.1800639052623839  0.9132017145567665  0.8969736410872559
  0.8199360947376161  0.0867982854432335  0.1030263589127441
  0.0670395988886433  0.7851745343019302  0.1630337991212383
  0.9329604231113514  0.2148254656980697  0.8369662298787605
  0.9329604231113514  0.7148254656980698  0.6630337701212395
  0.0670395988886433  0.2851745343019303  0.3369662008787617
  0.9329604231113514  0.2851745343019303  0.3369662008787617
  0.0670395988886433  0.7148254656980698  0.6630337701212395
  0.0670395988886433  0.2148254656980697  0.8369662298787605
  0.9329604231113514  0.7851745343019302  0.1630337991212383
  0.5670395768886486  0.2851745343019303  0.1630337991212383
  0.4329603941113526  0.7148254656980698  0.8369662298787605
  0.4329603941113526  0.2148254656980697  0.6630337701212395
  0.5670395768886486  0.7851745343019302  0.3369662008787617
  0.4329603941113526  0.7851745343019302  0.3369662008787617
  0.5670395768886486  0.2148254656980697  0.6630337701212395
  0.5670395768886486  0.7148254656980698  0.8369662298787605
  0.4329603941113526  0.2851745343019303  0.1630337991212383
 -0.0000000000000000  0.6087048313726044  0.1790582060370197
 -0.0000000000000000  0.3912951686273956  0.8209417639629777
 -0.0000000000000000  0.8912951686273956  0.6790582360370223
 -0.0000000000000000  0.1087048313726044  0.3209417939629803
  0.5000000000000000  0.1087048313726044  0.1790582060370197
  0.5000000000000000  0.8912951686273956  0.8209417639629777
  0.5000000000000000  0.3912951686273956  0.6790582360370223
  0.5000000000000000  0.6087048313726044  0.3209417939629803
 -0.0000000000000000  0.7348757601886761  0.2891895119169731
 -0.0000000000000000  0.2651242398113239  0.7108104730830292
 -0.0000000000000000  0.7651242398113239  0.7891895269169708
 -0.0000000000000000  0.2348757601886760  0.2108104730830292
  0.5000000000000000  0.2348757601886760  0.2891895119169731
  0.5000000000000000  0.7651242398113239  0.7108104730830292
  0.5000000000000000  0.2651242398113239  0.7891895269169708
  0.5000000000000000  0.7348757601886761  0.2108104730830292
  0.7498547322099696  0.5000000000000000 -0.0000000000000000
  0.2501452677900304  0.5000000000000000 -0.0000000000000000
  0.2501452677900304 -0.0000000000000000  0.5000000000000000
  0.7498547322099696 -0.0000000000000000  0.5000000000000000
  0.2498547322099696 -0.0000000000000000 -0.0000000000000000
  0.7501452677900304 -0.0000000000000000 -0.0000000000000000
  0.7501452677900304  0.5000000000000000  0.5000000000000000
  0.2498547322099696  0.5000000000000000  0.5000000000000000
 
  0.00000000E+00  0.00000000E+00  0.00000000E+00
  0.00000000E+00  0.00000000E+00  0.00000000E+00
  0.00000000E+00  0.00000000E+00  0.00000000E+00
  0.00000000E+00  0.00000000E+00  0.00000000E+00
  0.00000000E+00  0.00000000E+00  0.00000000E+00
  0.00000000E+00  0.00000000E+00  0.00000000E+00
  0.00000000E+00  0.00000000E+00  0.00000000E+00
  0.00000000E+00  0.00000000E+00  0.00000000E+00
  0.00000000E+00  0.00000000E+00  0.00000000E+00
  0.00000000E+00  0.00000000E+00  0.00000000E+00
  0.00000000E+00  0.00000000E+00  0.00000000E+00
  0.00000000E+00  0.00000000E+00  0.00000000E+00
  0.00000000E+00  0.00000000E+00  0.00000000E+00
  0.00000000E+00  0.00000000E+00  0.00000000E+00
  0.00000000E+00  0.00000000E+00  0.00000000E+00
  0.00000000E+00  0.00000000E+00  0.00000000E+00
  0.00000000E+00  0.00000000E+00  0.00000000E+00
  0.00000000E+00  0.00000000E+00  0.00000000E+00
  0.00000000E+00  0.00000000E+00  0.00000000E+00
  0.00000000E+00  0.00000000E+00  0.00000000E+00
  0.00000000E+00  0.00000000E+00  0.00000000E+00
  0.00000000E+00  0.00000000E+00  0.00000000E+00
  0.00000000E+00  0.00000000E+00  0.00000000E+00
  0.00000000E+00  0.00000000E+00  0.00000000E+00
  0.00000000E+00  0.00000000E+00  0.00000000E+00
  0.00000000E+00  0.00000000E+00  0.00000000E+00
  0.00000000E+00  0.00000000E+00  0.00000000E+00
  0.00000000E+00  0.00000000E+00  0.00000000E+00
  0.00000000E+00  0.00000000E+00  0.00000000E+00
  0.00000000E+00  0.00000000E+00  0.00000000E+00
  0.00000000E+00  0.00000000E+00  0.00000000E+00
  0.00000000E+00  0.00000000E+00  0.00000000E+00
  0.00000000E+00  0.00000000E+00  0.00000000E+00
  0.00000000E+00  0.00000000E+00  0.00000000E+00
  0.00000000E+00  0.00000000E+00  0.00000000E+00
  0.00000000E+00  0.00000000E+00  0.00000000E+00
  0.00000000E+00  0.00000000E+00  0.00000000E+00
  0.00000000E+00  0.00000000E+00  0.00000000E+00
  0.00000000E+00  0.00000000E+00  0.00000000E+00
  0.00000000E+00  0.00000000E+00  0.00000000E+00
  0.00000000E+00  0.00000000E+00  0.00000000E+00
  0.00000000E+00  0.00000000E+00  0.00000000E+00
  0.00000000E+00  0.00000000E+00  0.00000000E+00
  0.00000000E+00  0.00000000E+00  0.00000000E+00
  0.00000000E+00  0.00000000E+00  0.00000000E+00
  0.00000000E+00  0.00000000E+00  0.00000000E+00
  0.00000000E+00  0.00000000E+00  0.00000000E+00
  0.00000000E+00  0.00000000E+00  0.00000000E+00
  0.00000000E+00  0.00000000E+00  0.00000000E+00
  0.00000000E+00  0.00000000E+00  0.00000000E+00
  0.00000000E+00  0.00000000E+00  0.00000000E+00
  0.00000000E+00  0.00000000E+00  0.00000000E+00
  0.00000000E+00  0.00000000E+00  0.00000000E+00
  0.00000000E+00  0.00000000E+00  0.00000000E+00
  0.00000000E+00  0.00000000E+00  0.00000000E+00
  0.00000000E+00  0.00000000E+00  0.00000000E+00
  0.00000000E+00  0.00000000E+00  0.00000000E+00
  0.00000000E+00  0.00000000E+00  0.00000000E+00
  0.00000000E+00  0.00000000E+00  0.00000000E+00
  0.00000000E+00  0.00000000E+00  0.00000000E+00
  0.00000000E+00  0.00000000E+00  0.00000000E+00
  0.00000000E+00  0.00000000E+00  0.00000000E+00
  0.00000000E+00  0.00000000E+00  0.00000000E+00
  0.00000000E+00  0.00000000E+00  0.00000000E+00
  0.00000000E+00  0.00000000E+00  0.00000000E+00
  0.00000000E+00  0.00000000E+00  0.00000000E+00
  0.00000000E+00  0.00000000E+00  0.00000000E+00
  0.00000000E+00  0.00000000E+00  0.00000000E+00
  0.00000000E+00  0.00000000E+00  0.00000000E+00
  0.00000000E+00  0.00000000E+00  0.00000000E+00
  0.00000000E+00  0.00000000E+00  0.00000000E+00
  0.00000000E+00  0.00000000E+00  0.00000000E+00
