methane-low                             
   1.00000000000000     
    11.7079000473000008    0.0000000000000000    0.0000000000000000
     0.0000000000000000    8.1892995834000004    0.0000000000000000
     0.0000000000000000    0.0000000000000000    8.1842002868999995
   H    C 
    64    16
Direct
  0.0757954455665706  0.8271688389580681  0.1557503863486293
  0.9242045764334239  0.1728311610419318  0.8442496426513697
  0.9242045764334239  0.6728311610419319  0.6557503573486303
  0.0757954455665706  0.3271688389580683  0.3442496136513709
  0.9242045764334239  0.3271688389580683  0.3442496136513708
  0.0757954455665706  0.6728311610419319  0.6557503573486303
  0.0757954455665706  0.1728311610419318  0.8442496426513697
  0.9242045764334239  0.8271688389580681  0.1557503863486292
  0.5757954235665761  0.3271688389580683  0.1557503863486292
  0.4242045474334253  0.6728311610419319  0.8442496426513697
  0.4242045474334253  0.1728311610419318  0.6557503573486303
  0.5757954235665761  0.8271688389580681  0.3442496136513708
  0.4242045474334253  0.8271688389580681  0.3442496136513708
  0.5757954235665761  0.1728311610419318  0.6557503573486303
  0.5757954235665761  0.6728311610419319  0.8442496426513697
  0.4242045474334253  0.3271688389580683  0.1557503863486292
  0.8070169135430454  0.5848500013098216  0.9307421370421626
  0.1929830864569549  0.4151499986901788  0.0692578629578372
  0.1929830864569549  0.9151499986901784  0.4307421370421628
  0.8070169135430454  0.0848500013098213  0.5692578629578374
  0.1929830864569549  0.0848500013098214  0.5692578629578374
  0.8070169135430454  0.9151499986901784  0.4307421370421628
  0.8070169135430454  0.4151499986901788  0.0692578629578372
  0.1929830864569549  0.5848500013098216  0.9307421370421626
  0.3070169135430450  0.0848500013098214  0.9307421370421626
  0.6929830864569546  0.9151499986901783  0.0692578629578372
  0.6929830864569546  0.4151499986901788  0.4307421370421628
  0.3070169135430450  0.5848500013098216  0.5692578629578375
  0.6929830864569546  0.5848500013098216  0.5692578629578374
  0.3070169135430450  0.4151499986901788  0.4307421370421628
  0.3070169135430450  0.9151499986901783  0.0692578629578372
  0.6929830864569546  0.0848500013098214  0.9307421370421625
  0.6988678792546305  0.5695734756649853  0.0843029889695480
  0.3011321207453695  0.4304265243350145  0.9156970110304518
  0.3011321207453695  0.9304265243350147  0.5843029889695481
  0.6988678792546305  0.0695734756649854  0.4156970110304519
  0.3011321207453695  0.0695734756649854  0.4156970110304519
  0.6988678792546305  0.9304265243350147  0.5843029889695481
  0.6988678792546303  0.4304265243350145  0.9156970110304518
  0.3011321207453695  0.5695734756649853  0.0843029889695480
  0.1988678792546305  0.0695734756649854  0.0843029889695480
  0.8011321207453697  0.9304265243350147  0.9156970110304518
  0.8011321207453695  0.4304265243350145  0.5843029889695481
  0.1988678792546305  0.5695734756649853  0.4156970110304519
  0.8011321207453695  0.5695734756649853  0.4156970110304519
  0.1988678792546305  0.4304265243350145  0.5843029889695481
  0.1988678792546305  0.9304265243350147  0.9156970110304518
  0.8011321207453697  0.0695734756649854  0.0843029889695480
 -0.0000000000000000  0.6375505867326481  0.1408442498716029
 -0.0000000000000000  0.3624494132673519  0.8591557201283947
 -0.0000000000000000  0.8624494132673519  0.6408442798716053
 -0.0000000000000000  0.1375505867326481  0.3591557501283970
  0.5000000000000000  0.1375505867326481  0.1408442498716029
  0.5000000000000000  0.8624494132673519  0.8591557201283947
  0.5000000000000000  0.3624494132673519  0.6408442798716053
  0.5000000000000000  0.6375505867326481  0.3591557501283970
 -0.0000000000000000  0.2783170497530412  0.5262125476199551
 -0.0000000000000000  0.7216829502469588 -0.5262125476199547
 -0.0000000000000000  0.2216829502469587  0.0262125476199545
 -0.0000000000000000 -0.2216829502469587 -0.0262125476199546
  0.5000000000000000 -0.2216829502469587  0.5262125476199546
  0.5000000000000000  0.2216829502469589 -0.5262125476199547
  0.5000000000000000  0.7216829502469586  0.0262125476199545
  0.5000000000000000  0.2783170497530412 -0.0262125476199546
 -0.0000000000000000  0.2672461795277275 -0.6071694552591212
 -0.0000000000000000  0.7327538204722724  0.6071694402591234
 -0.0000000000000000  0.2327538204722725 -0.1071694402591237
 -0.0000000000000000 -0.2327538204722724  0.1071694402591236
  0.5000000000000000 -0.2327538204722724 -0.6071694552591212
  0.5000000000000000  0.2327538204722725  0.6071694402591234
  0.5000000000000000  0.7327538204722726 -0.1071694402591237
  0.5000000000000000  0.2672461795277275  0.1071694402591236
  0.7530365409277540  0.5000000000000000 -0.0000000000000000
  0.2469634590722461  0.5000000000000000 -0.0000000000000000
  0.2469634590722461  0.0000000000000000  0.5000000000000000
  0.7530365409277540  0.0000000000000000  0.5000000000000000
  0.2530365409277540  0.0000000000000000 -0.0000000000000000
  0.7469634590722460  0.0000000000000000 -0.0000000000000000
  0.7469634590722460  0.5000000000000000  0.5000000000000000
  0.2530365409277540  0.5000000000000000  0.5000000000000000
 
  0.00000000E+00  0.00000000E+00  0.00000000E+00
  0.00000000E+00  0.00000000E+00  0.00000000E+00
  0.00000000E+00  0.00000000E+00  0.00000000E+00
  0.00000000E+00  0.00000000E+00  0.00000000E+00
  0.00000000E+00  0.00000000E+00  0.00000000E+00
  0.00000000E+00  0.00000000E+00  0.00000000E+00
  0.00000000E+00  0.00000000E+00  0.00000000E+00
  0.00000000E+00  0.00000000E+00  0.00000000E+00
  0.00000000E+00  0.00000000E+00  0.00000000E+00
  0.00000000E+00  0.00000000E+00  0.00000000E+00
  0.00000000E+00  0.00000000E+00  0.00000000E+00
  0.00000000E+00  0.00000000E+00  0.00000000E+00
  0.00000000E+00  0.00000000E+00  0.00000000E+00
  0.00000000E+00  0.00000000E+00  0.00000000E+00
  0.00000000E+00  0.00000000E+00  0.00000000E+00
  0.00000000E+00  0.00000000E+00  0.00000000E+00
  0.00000000E+00  0.00000000E+00  0.00000000E+00
  0.00000000E+00  0.00000000E+00  0.00000000E+00
  0.00000000E+00  0.00000000E+00  0.00000000E+00
  0.00000000E+00  0.00000000E+00  0.00000000E+00
  0.00000000E+00  0.00000000E+00  0.00000000E+00
  0.00000000E+00  0.00000000E+00  0.00000000E+00
  0.00000000E+00  0.00000000E+00  0.00000000E+00
  0.00000000E+00  0.00000000E+00  0.00000000E+00
  0.00000000E+00  0.00000000E+00  0.00000000E+00
  0.00000000E+00  0.00000000E+00  0.00000000E+00
  0.00000000E+00  0.00000000E+00  0.00000000E+00
  0.00000000E+00  0.00000000E+00  0.00000000E+00
  0.00000000E+00  0.00000000E+00  0.00000000E+00
  0.00000000E+00  0.00000000E+00  0.00000000E+00
  0.00000000E+00  0.00000000E+00  0.00000000E+00
  0.00000000E+00  0.00000000E+00  0.00000000E+00
  0.00000000E+00  0.00000000E+00  0.00000000E+00
  0.00000000E+00  0.00000000E+00  0.00000000E+00
  0.00000000E+00  0.00000000E+00  0.00000000E+00
  0.00000000E+00  0.00000000E+00  0.00000000E+00
  0.00000000E+00  0.00000000E+00  0.00000000E+00
  0.00000000E+00  0.00000000E+00  0.00000000E+00
  0.00000000E+00  0.00000000E+00  0.00000000E+00
  0.00000000E+00  0.00000000E+00  0.00000000E+00
  0.00000000E+00  0.00000000E+00  0.00000000E+00
  0.00000000E+00  0.00000000E+00  0.00000000E+00
  0.00000000E+00  0.00000000E+00  0.00000000E+00
  0.00000000E+00  0.00000000E+00  0.00000000E+00
  0.00000000E+00  0.00000000E+00  0.00000000E+00
  0.00000000E+00  0.00000000E+00  0.00000000E+00
  0.00000000E+00  0.00000000E+00  0.00000000E+00
  0.00000000E+00  0.00000000E+00  0.00000000E+00
  0.00000000E+00  0.00000000E+00  0.00000000E+00
  0.00000000E+00  0.00000000E+00  0.00000000E+00
  0.00000000E+00  0.00000000E+00  0.00000000E+00
  0.00000000E+00  0.00000000E+00  0.00000000E+00
  0.00000000E+00  0.00000000E+00  0.00000000E+00
  0.00000000E+00  0.00000000E+00  0.00000000E+00
  0.00000000E+00  0.00000000E+00  0.00000000E+00
  0.00000000E+00  0.00000000E+00  0.00000000E+00
  0.00000000E+00  0.00000000E+00  0.00000000E+00
  0.00000000E+00  0.00000000E+00  0.00000000E+00
  0.00000000E+00  0.00000000E+00  0.00000000E+00
  0.00000000E+00  0.00000000E+00  0.00000000E+00
  0.00000000E+00  0.00000000E+00  0.00000000E+00
  0.00000000E+00  0.00000000E+00  0.00000000E+00
  0.00000000E+00  0.00000000E+00  0.00000000E+00
  0.00000000E+00  0.00000000E+00  0.00000000E+00
  0.00000000E+00  0.00000000E+00  0.00000000E+00
  0.00000000E+00  0.00000000E+00  0.00000000E+00
  0.00000000E+00  0.00000000E+00  0.00000000E+00
  0.00000000E+00  0.00000000E+00  0.00000000E+00
  0.00000000E+00  0.00000000E+00  0.00000000E+00
  0.00000000E+00  0.00000000E+00  0.00000000E+00
  0.00000000E+00  0.00000000E+00  0.00000000E+00
  0.00000000E+00  0.00000000E+00  0.00000000E+00
  0.00000000E+00  0.00000000E+00  0.00000000E+00
  0.00000000E+00  0.00000000E+00  0.00000000E+00
  0.00000000E+00  0.00000000E+00  0.00000000E+00
  0.00000000E+00  0.00000000E+00  0.00000000E+00
  0.00000000E+00  0.00000000E+00  0.00000000E+00
  0.00000000E+00  0.00000000E+00  0.00000000E+00
  0.00000000E+00  0.00000000E+00  0.00000000E+00
  0.00000000E+00  0.00000000E+00  0.00000000E+00
