methane-low                             
   1.00000000000000     
    11.7079000473000008    0.0000000000000000    0.0000000000000000
     0.0000000000000000    8.1892995834000004    0.0000000000000000
     0.0000000000000000    0.0000000000000000    8.1842002868999995
   H    C 
    64    16
Direct
  0.0764936757448892  0.8196938920023270  0.1651321884230900
  0.9235063462551052  0.1803061079976730  0.8348678405769089
  0.9235063462551052  0.6803061079976730  0.6651321594230911
  0.0764936757448892  0.3196938920023271  0.3348678115769100
  0.9235063462551052  0.3196938920023271  0.3348678115769100
  0.0764936757448892  0.6803061079976730  0.6651321594230911
  0.0764936757448892  0.1803061079976730  0.8348678405769089
  0.9235063462551052  0.8196938920023270  0.1651321884230900
  0.5764936537448948  0.3196938920023271  0.1651321884230900
  0.4235063172551068  0.6803061079976730  0.8348678405769089
  0.4235063172551068  0.1803061079976730  0.6651321594230911
  0.5764936537448948  0.8196938920023270  0.3348678115769100
  0.4235063172551068  0.8196938920023270  0.3348678115769100
  0.5764936537448948  0.1803061079976730  0.6651321594230911
  0.5764936537448948  0.6803061079976730  0.8348678405769089
  0.4235063172551068  0.3196938920023271  0.1651321884230900
  0.8124108119416076  0.5851356542940163  0.9316571560546973
  0.1875891880583929  0.4148643457059843  0.0683428439453024
  0.1875891880583929  0.9148643457059837  0.4316571560546976
  0.8124108119416076  0.0851356542940159  0.5683428439453027
  0.1875891880583929  0.0851356542940159  0.5683428439453027
  0.8124108119416076  0.9148643457059837  0.4316571560546976
  0.8124108119416076  0.4148643457059843  0.0683428439453025
  0.1875891880583929  0.5851356542940163  0.9316571560546973
  0.3124108119416070  0.0851356542940159  0.9316571560546973
  0.6875891880583924  0.9148643457059836  0.0683428439453024
  0.6875891880583924  0.4148643457059843  0.4316571560546976
  0.3124108119416070  0.5851356542940163  0.5683428439453028
  0.6875891880583924  0.5851356542940163  0.5683428439453027
  0.3124108119416070  0.4148643457059843  0.4316571560546976
  0.3124108119416070  0.9148643457059836  0.0683428439453025
  0.6875891880583924  0.0851356542940159  0.9316571560546972
  0.7043263408208228  0.5686519785135382  0.0849667789958040
  0.2956736591791770  0.4313480214864616  0.9150332210041954
  0.2956736591791770  0.9313480214864618  0.5849667789958045
  0.7043263408208228  0.0686519785135383  0.4150332210041959
  0.2956736591791770  0.0686519785135383  0.4150332210041959
  0.7043263408208228  0.9313480214864618  0.5849667789958045
  0.7043263408208226  0.4313480214864616  0.9150332210041954
  0.2956736591791770  0.5686519785135382  0.0849667789958040
  0.2043263408208229  0.0686519785135383  0.0849667789958040
  0.7956736591791773  0.9313480214864618  0.9150332210041954
  0.7956736591791772  0.4313480214864616  0.5849667789958045
  0.2043263408208229  0.5686519785135382  0.4150332210041959
  0.7956736591791772  0.5686519785135382  0.4150332210041959
  0.2043263408208229  0.4313480214864616  0.5849667789958045
  0.2043263408208229  0.9313480214864618  0.9150332210041954
  0.7956736591791774  0.0686519785135383  0.0849667789958040
 -0.0000000000000000  0.6311312833957632  0.1456262573491774
 -0.0000000000000000  0.3688687166042367  0.8543737126508203
 -0.0000000000000000  0.8688687166042368  0.6456262873491797
 -0.0000000000000000  0.1311312833957633  0.3543737426508225
  0.5000000000000000  0.1311312833957633  0.1456262573491774
  0.5000000000000000  0.8688687166042368  0.8543737126508203
  0.5000000000000000  0.3688687166042367  0.6456262873491797
  0.5000000000000000  0.6311312833957632  0.3543737426508225
 -0.0000000000000000  0.2756284085333190  0.5182502362781597
 -0.0000000000000000  0.7243715914666811 -0.5182502362781594
 -0.0000000000000000  0.2243715914666810  0.0182502362781591
 -0.0000000000000000 -0.2243715914666809 -0.0182502362781592
  0.5000000000000000 -0.2243715914666810  0.5182502362781592
  0.5000000000000000  0.2243715914666812 -0.5182502362781594
  0.5000000000000000  0.7243715914666808  0.0182502362781591
  0.5000000000000000  0.2756284085333190 -0.0182502362781592
 -0.0000000000000000  0.2613715314601403 -0.6149424069222169
 -0.0000000000000000  0.7386284685398599  0.6149423919222191
 -0.0000000000000000  0.2386284685398598 -0.1149423919222195
 -0.0000000000000000 -0.2386284685398598  0.1149423919222193
  0.5000000000000000 -0.2386284685398598 -0.6149424069222169
  0.5000000000000000  0.2386284685398598  0.6149423919222191
  0.5000000000000000  0.7386284685398600 -0.1149423919222195
  0.5000000000000000  0.2613715314601403  0.1149423919222193
  0.7583520800844158  0.5000000000000000 -0.0000000000000000
  0.2416479199155846  0.5000000000000000 -0.0000000000000000
  0.2416479199155846  0.0000000000000000  0.5000000000000000
  0.7583520800844158  0.0000000000000000  0.5000000000000000
  0.2583520800844156  0.0000000000000000 -0.0000000000000000
  0.7416479199155842  0.0000000000000000 -0.0000000000000000
  0.7416479199155842  0.5000000000000000  0.5000000000000000
  0.2583520800844156  0.5000000000000000  0.5000000000000000
 
  0.00000000E+00  0.00000000E+00  0.00000000E+00
  0.00000000E+00  0.00000000E+00  0.00000000E+00
  0.00000000E+00  0.00000000E+00  0.00000000E+00
  0.00000000E+00  0.00000000E+00  0.00000000E+00
  0.00000000E+00  0.00000000E+00  0.00000000E+00
  0.00000000E+00  0.00000000E+00  0.00000000E+00
  0.00000000E+00  0.00000000E+00  0.00000000E+00
  0.00000000E+00  0.00000000E+00  0.00000000E+00
  0.00000000E+00  0.00000000E+00  0.00000000E+00
  0.00000000E+00  0.00000000E+00  0.00000000E+00
  0.00000000E+00  0.00000000E+00  0.00000000E+00
  0.00000000E+00  0.00000000E+00  0.00000000E+00
  0.00000000E+00  0.00000000E+00  0.00000000E+00
  0.00000000E+00  0.00000000E+00  0.00000000E+00
  0.00000000E+00  0.00000000E+00  0.00000000E+00
  0.00000000E+00  0.00000000E+00  0.00000000E+00
  0.00000000E+00  0.00000000E+00  0.00000000E+00
  0.00000000E+00  0.00000000E+00  0.00000000E+00
  0.00000000E+00  0.00000000E+00  0.00000000E+00
  0.00000000E+00  0.00000000E+00  0.00000000E+00
  0.00000000E+00  0.00000000E+00  0.00000000E+00
  0.00000000E+00  0.00000000E+00  0.00000000E+00
  0.00000000E+00  0.00000000E+00  0.00000000E+00
  0.00000000E+00  0.00000000E+00  0.00000000E+00
  0.00000000E+00  0.00000000E+00  0.00000000E+00
  0.00000000E+00  0.00000000E+00  0.00000000E+00
  0.00000000E+00  0.00000000E+00  0.00000000E+00
  0.00000000E+00  0.00000000E+00  0.00000000E+00
  0.00000000E+00  0.00000000E+00  0.00000000E+00
  0.00000000E+00  0.00000000E+00  0.00000000E+00
  0.00000000E+00  0.00000000E+00  0.00000000E+00
  0.00000000E+00  0.00000000E+00  0.00000000E+00
  0.00000000E+00  0.00000000E+00  0.00000000E+00
  0.00000000E+00  0.00000000E+00  0.00000000E+00
  0.00000000E+00  0.00000000E+00  0.00000000E+00
  0.00000000E+00  0.00000000E+00  0.00000000E+00
  0.00000000E+00  0.00000000E+00  0.00000000E+00
  0.00000000E+00  0.00000000E+00  0.00000000E+00
  0.00000000E+00  0.00000000E+00  0.00000000E+00
  0.00000000E+00  0.00000000E+00  0.00000000E+00
  0.00000000E+00  0.00000000E+00  0.00000000E+00
  0.00000000E+00  0.00000000E+00  0.00000000E+00
  0.00000000E+00  0.00000000E+00  0.00000000E+00
  0.00000000E+00  0.00000000E+00  0.00000000E+00
  0.00000000E+00  0.00000000E+00  0.00000000E+00
  0.00000000E+00  0.00000000E+00  0.00000000E+00
  0.00000000E+00  0.00000000E+00  0.00000000E+00
  0.00000000E+00  0.00000000E+00  0.00000000E+00
  0.00000000E+00  0.00000000E+00  0.00000000E+00
  0.00000000E+00  0.00000000E+00  0.00000000E+00
  0.00000000E+00  0.00000000E+00  0.00000000E+00
  0.00000000E+00  0.00000000E+00  0.00000000E+00
  0.00000000E+00  0.00000000E+00  0.00000000E+00
  0.00000000E+00  0.00000000E+00  0.00000000E+00
  0.00000000E+00  0.00000000E+00  0.00000000E+00
  0.00000000E+00  0.00000000E+00  0.00000000E+00
  0.00000000E+00  0.00000000E+00  0.00000000E+00
  0.00000000E+00  0.00000000E+00  0.00000000E+00
  0.00000000E+00  0.00000000E+00  0.00000000E+00
  0.00000000E+00  0.00000000E+00  0.00000000E+00
  0.00000000E+00  0.00000000E+00  0.00000000E+00
  0.00000000E+00  0.00000000E+00  0.00000000E+00
  0.00000000E+00  0.00000000E+00  0.00000000E+00
  0.00000000E+00  0.00000000E+00  0.00000000E+00
  0.00000000E+00  0.00000000E+00  0.00000000E+00
  0.00000000E+00  0.00000000E+00  0.00000000E+00
  0.00000000E+00  0.00000000E+00  0.00000000E+00
  0.00000000E+00  0.00000000E+00  0.00000000E+00
  0.00000000E+00  0.00000000E+00  0.00000000E+00
  0.00000000E+00  0.00000000E+00  0.00000000E+00
  0.00000000E+00  0.00000000E+00  0.00000000E+00
  0.00000000E+00  0.00000000E+00  0.00000000E+00
  0.00000000E+00  0.00000000E+00  0.00000000E+00
  0.00000000E+00  0.00000000E+00  0.00000000E+00
  0.00000000E+00  0.00000000E+00  0.00000000E+00
  0.00000000E+00  0.00000000E+00  0.00000000E+00
  0.00000000E+00  0.00000000E+00  0.00000000E+00
  0.00000000E+00  0.00000000E+00  0.00000000E+00
  0.00000000E+00  0.00000000E+00  0.00000000E+00
  0.00000000E+00  0.00000000E+00  0.00000000E+00
