methane-low                             
   1.00000000000000     
    11.7079000473000008    0.0000000000000000    0.0000000000000000
     0.0000000000000000    8.1892995834000004    0.0000000000000000
     0.0000000000000000    0.0000000000000000    8.1842002868999995
   H    C 
    64    16
Direct
  0.0765490195097140  0.8069714407293198  0.2195402591181346
  0.9234510024902810  0.1930285592706801  0.7804597698818644
  0.9234510024902810  0.6930285592706802  0.7195402301181356
  0.0765490195097140  0.3069714407293199  0.2804597408818655
  0.9234510024902810  0.3069714407293199  0.2804597408818655
  0.0765490195097140  0.6930285592706802  0.7195402301181356
  0.0765490195097140  0.1930285592706801  0.7804597698818644
  0.9234510024902810  0.8069714407293198  0.2195402591181346
  0.5765489975097190  0.3069714407293199  0.2195402591181346
  0.4234509734902818  0.6930285592706802  0.7804597698818644
  0.4234509734902818  0.1930285592706801  0.7195402301181356
  0.5765489975097190  0.8069714407293198  0.2804597408818655
  0.4234509734902818  0.8069714407293198  0.2804597408818655
  0.5765489975097190  0.1930285592706801  0.7195402301181356
  0.5765489975097190  0.6930285592706802  0.7804597698818644
  0.4234509734902818  0.3069714407293199  0.2195402591181346
  0.8111368572513266  0.5858813775808538  0.9327995006210793
  0.1888631427486803  0.4141186224191465  0.0672004993789207
  0.1888631427486803  0.9141186224191462  0.4327995006210794
  0.8111368572513266  0.0858813775808536  0.5672004993789207
  0.1888631427486803  0.0858813775808536  0.5672004993789207
  0.8111368572513266  0.9141186224191462  0.4327995006210795
  0.8111368572513266  0.4141186224191464  0.0672004993789207
  0.1888631427486803  0.5858813775808538  0.9327995006210793
  0.3111368572513198  0.0858813775808536  0.9327995006210793
  0.6888631427486734  0.9141186224191462  0.0672004993789207
  0.6888631427486734  0.4141186224191464  0.4327995006210795
  0.3111368572513198  0.5858813775808538  0.5672004993789207
  0.6888631427486734  0.5858813775808538  0.5672004993789207
  0.3111368572513198  0.4141186224191464  0.4327995006210794
  0.3111368572513198  0.9141186224191463  0.0672004993789207
  0.6888631427486734  0.0858813775808536  0.9327995006210793
  0.7030156371370880  0.5675503902520012  0.0859104962320748
  0.2969843628629117  0.4324496097479991  0.9140895037679247
  0.2969843628629117  0.9324496097479988  0.5859104962320753
  0.7030156371370880  0.0675503902520012  0.4140895037679254
  0.2969843628629117  0.0675503902520012  0.4140895037679254
  0.7030156371370880  0.9324496097479988  0.5859104962320753
  0.7030156371370880  0.4324496097479991  0.9140895037679247
  0.2969843628629117  0.5675503902520012  0.0859104962320748
  0.2030156371370882  0.0675503902520012  0.0859104962320748
  0.7969843628629120  0.9324496097479988  0.9140895037679247
  0.7969843628629120  0.4324496097479991  0.5859104962320753
  0.2030156371370882  0.5675503902520012  0.4140895037679254
  0.7969843628629120  0.5675503902520012  0.4140895037679254
  0.2030156371370881  0.4324496097479991  0.5859104962320753
  0.2030156371370881  0.9324496097479988  0.9140895037679247
  0.7969843628629120  0.0675503902520012  0.0859104962320748
 -0.0000000000000000  0.6198114751815431  0.1912919172107320
 -0.0000000000000000  0.3801885248184571  0.8087080527892652
 -0.0000000000000000  0.8801885248184569  0.6912919472107348
 -0.0000000000000000  0.1198114751815427  0.3087080827892680
  0.5000000000000000  0.1198114751815427  0.1912919172107320
  0.5000000000000000  0.8801885248184569  0.8087080527892651
  0.5000000000000000  0.3801885248184571  0.6912919472107348
  0.5000000000000000  0.6198114751815431  0.3087080827892680
 -0.0000000000000000  0.2717588736988831  0.4657892446760097
 -0.0000000000000000  0.7282411263011166  0.5342107553239897
 -0.0000000000000000  0.2282411263011169 -0.0342107553239898
 -0.0000000000000000  0.7717588736988834  0.0342107553239900
  0.5000000000000000  0.7717588736988834  0.4657892446760097
  0.5000000000000000  0.2282411263011169  0.5342107553239897
  0.5000000000000000  0.7282411263011166 -0.0342107553239898
  0.5000000000000000  0.2717588736988831  0.0342107553239900
 -0.0000000000000000  0.2512696863324421  0.3335643578418627
 -0.0000000000000000  0.7487303136675580  0.6664356271581399
 -0.0000000000000000  0.2487303136675580  0.8335643728418601
 -0.0000000000000000  0.7512696863324420  0.1664356271581397
  0.5000000000000000  0.7512696863324420  0.3335643578418627
  0.5000000000000000  0.2487303136675580  0.6664356271581399
  0.5000000000000000  0.7487303136675580  0.8335643728418601
  0.5000000000000000  0.2512696863324421  0.1664356271581397
  0.7569598619019444  0.5000000000000000 -0.0000000000000000
  0.2430401380980552  0.5000000000000000 -0.0000000000000000
  0.2430401380980552 -0.0000000000000000  0.5000000000000000
  0.7569598619019444 -0.0000000000000000  0.5000000000000000
  0.2569598619019449 -0.0000000000000000 -0.0000000000000000
  0.7430401380980556 -0.0000000000000000 -0.0000000000000000
  0.7430401380980556  0.5000000000000000  0.5000000000000000
  0.2569598619019449  0.5000000000000000  0.5000000000000000
 
  0.00000000E+00  0.00000000E+00  0.00000000E+00
  0.00000000E+00  0.00000000E+00  0.00000000E+00
  0.00000000E+00  0.00000000E+00  0.00000000E+00
  0.00000000E+00  0.00000000E+00  0.00000000E+00
  0.00000000E+00  0.00000000E+00  0.00000000E+00
  0.00000000E+00  0.00000000E+00  0.00000000E+00
  0.00000000E+00  0.00000000E+00  0.00000000E+00
  0.00000000E+00  0.00000000E+00  0.00000000E+00
  0.00000000E+00  0.00000000E+00  0.00000000E+00
  0.00000000E+00  0.00000000E+00  0.00000000E+00
  0.00000000E+00  0.00000000E+00  0.00000000E+00
  0.00000000E+00  0.00000000E+00  0.00000000E+00
  0.00000000E+00  0.00000000E+00  0.00000000E+00
  0.00000000E+00  0.00000000E+00  0.00000000E+00
  0.00000000E+00  0.00000000E+00  0.00000000E+00
  0.00000000E+00  0.00000000E+00  0.00000000E+00
  0.00000000E+00  0.00000000E+00  0.00000000E+00
  0.00000000E+00  0.00000000E+00  0.00000000E+00
  0.00000000E+00  0.00000000E+00  0.00000000E+00
  0.00000000E+00  0.00000000E+00  0.00000000E+00
  0.00000000E+00  0.00000000E+00  0.00000000E+00
  0.00000000E+00  0.00000000E+00  0.00000000E+00
  0.00000000E+00  0.00000000E+00  0.00000000E+00
  0.00000000E+00  0.00000000E+00  0.00000000E+00
  0.00000000E+00  0.00000000E+00  0.00000000E+00
  0.00000000E+00  0.00000000E+00  0.00000000E+00
  0.00000000E+00  0.00000000E+00  0.00000000E+00
  0.00000000E+00  0.00000000E+00  0.00000000E+00
  0.00000000E+00  0.00000000E+00  0.00000000E+00
  0.00000000E+00  0.00000000E+00  0.00000000E+00
  0.00000000E+00  0.00000000E+00  0.00000000E+00
  0.00000000E+00  0.00000000E+00  0.00000000E+00
  0.00000000E+00  0.00000000E+00  0.00000000E+00
  0.00000000E+00  0.00000000E+00  0.00000000E+00
  0.00000000E+00  0.00000000E+00  0.00000000E+00
  0.00000000E+00  0.00000000E+00  0.00000000E+00
  0.00000000E+00  0.00000000E+00  0.00000000E+00
  0.00000000E+00  0.00000000E+00  0.00000000E+00
  0.00000000E+00  0.00000000E+00  0.00000000E+00
  0.00000000E+00  0.00000000E+00  0.00000000E+00
  0.00000000E+00  0.00000000E+00  0.00000000E+00
  0.00000000E+00  0.00000000E+00  0.00000000E+00
  0.00000000E+00  0.00000000E+00  0.00000000E+00
  0.00000000E+00  0.00000000E+00  0.00000000E+00
  0.00000000E+00  0.00000000E+00  0.00000000E+00
  0.00000000E+00  0.00000000E+00  0.00000000E+00
  0.00000000E+00  0.00000000E+00  0.00000000E+00
  0.00000000E+00  0.00000000E+00  0.00000000E+00
  0.00000000E+00  0.00000000E+00  0.00000000E+00
  0.00000000E+00  0.00000000E+00  0.00000000E+00
  0.00000000E+00  0.00000000E+00  0.00000000E+00
  0.00000000E+00  0.00000000E+00  0.00000000E+00
  0.00000000E+00  0.00000000E+00  0.00000000E+00
  0.00000000E+00  0.00000000E+00  0.00000000E+00
  0.00000000E+00  0.00000000E+00  0.00000000E+00
  0.00000000E+00  0.00000000E+00  0.00000000E+00
  0.00000000E+00  0.00000000E+00  0.00000000E+00
  0.00000000E+00  0.00000000E+00  0.00000000E+00
  0.00000000E+00  0.00000000E+00  0.00000000E+00
  0.00000000E+00  0.00000000E+00  0.00000000E+00
  0.00000000E+00  0.00000000E+00  0.00000000E+00
  0.00000000E+00  0.00000000E+00  0.00000000E+00
  0.00000000E+00  0.00000000E+00  0.00000000E+00
  0.00000000E+00  0.00000000E+00  0.00000000E+00
  0.00000000E+00  0.00000000E+00  0.00000000E+00
  0.00000000E+00  0.00000000E+00  0.00000000E+00
  0.00000000E+00  0.00000000E+00  0.00000000E+00
  0.00000000E+00  0.00000000E+00  0.00000000E+00
  0.00000000E+00  0.00000000E+00  0.00000000E+00
  0.00000000E+00  0.00000000E+00  0.00000000E+00
  0.00000000E+00  0.00000000E+00  0.00000000E+00
  0.00000000E+00  0.00000000E+00  0.00000000E+00
  0.00000000E+00  0.00000000E+00  0.00000000E+00
  0.00000000E+00  0.00000000E+00  0.00000000E+00
  0.00000000E+00  0.00000000E+00  0.00000000E+00
  0.00000000E+00  0.00000000E+00  0.00000000E+00
  0.00000000E+00  0.00000000E+00  0.00000000E+00
  0.00000000E+00  0.00000000E+00  0.00000000E+00
  0.00000000E+00  0.00000000E+00  0.00000000E+00
  0.00000000E+00  0.00000000E+00  0.00000000E+00
