methane-0                               
   1.00000000000000     
     6.3499999045999997    0.0000000000000000    0.0000000000000000
     0.0000000000000000    6.3499999045999997    0.0000000000000000
     0.0000000000000000    0.0000000000000000    6.3499999045999997
   H    C 
    16     4
Direct
  0.6171051897017764  0.5374896016349354  0.1820184123246504
  0.5585657955185178  0.6636185570532825  0.8741126149591759
  0.5812255122272999  0.3253553732634372  0.9189411345900897
  0.3151545925102718  0.4933301220949654  0.0360827110462623
  0.0889922413192773  0.5413552163749589  0.6910558955296779
  0.0342277542029056  0.6649685680999227  0.3850446441892794
  0.0552868436100038  0.3284675384572603  0.4276230499362613
  0.7897775829125253  0.4956162662089043  0.5510966595334780
  0.5890474565577087  0.0297458447050177  0.6573260528303371
  0.5297751172432170  0.1577298012004060  0.3492466492788058
  0.5508890059324600  0.8243732332403232  0.3956235840467503
  0.2831122440369843  0.9867671546293487  0.5127581786336108
  0.0957406029961777  0.0271595054300082  0.1776506063409372
  0.0382578531967573  0.1540847122788169  0.8672781355274753
  0.0598227245170234  0.8238338456871136  0.9128485441760238
  0.7948941720944513  0.9865674629439160  0.0363085175597889
  0.5160461791677415  0.5044715904862294  0.0029481218754538
  0.9921274174112676  0.5074586213030060  0.5130409532590936
  0.4891113263291263  0.0001592772957808  0.4795736075861674
  0.9974604965145057  0.9986676746123685  0.9983118527766910
 
  0.00000000E+00  0.00000000E+00  0.00000000E+00
  0.00000000E+00  0.00000000E+00  0.00000000E+00
  0.00000000E+00  0.00000000E+00  0.00000000E+00
  0.00000000E+00  0.00000000E+00  0.00000000E+00
  0.00000000E+00  0.00000000E+00  0.00000000E+00
  0.00000000E+00  0.00000000E+00  0.00000000E+00
  0.00000000E+00  0.00000000E+00  0.00000000E+00
  0.00000000E+00  0.00000000E+00  0.00000000E+00
  0.00000000E+00  0.00000000E+00  0.00000000E+00
  0.00000000E+00  0.00000000E+00  0.00000000E+00
  0.00000000E+00  0.00000000E+00  0.00000000E+00
  0.00000000E+00  0.00000000E+00  0.00000000E+00
  0.00000000E+00  0.00000000E+00  0.00000000E+00
  0.00000000E+00  0.00000000E+00  0.00000000E+00
  0.00000000E+00  0.00000000E+00  0.00000000E+00
  0.00000000E+00  0.00000000E+00  0.00000000E+00
  0.00000000E+00  0.00000000E+00  0.00000000E+00
  0.00000000E+00  0.00000000E+00  0.00000000E+00
  0.00000000E+00  0.00000000E+00  0.00000000E+00
  0.00000000E+00  0.00000000E+00  0.00000000E+00
