methane-high                            
   1.00000000000000     
    11.7079000473000008    0.0000000000000000    0.0000000000000000
     0.0000000000000000    8.1892995834000004    0.0000000000000000
     0.0000000000000000    0.0000000000000000    8.1842002868999995
   H    C 
    56    16
Direct
  0.8045006504187944  0.5847276840924790  0.9294697912216484
  0.1954993495812057  0.4152723159075209  0.0705302087783517
  0.1954993495812057  0.9152723159075210  0.4294697912216483
  0.8045006504187944  0.0847276840924791  0.5705302087783516
  0.1954993495812057  0.0847276840924791  0.5705302087783516
  0.8045006504187944  0.9152723159075210  0.4294697912216483
  0.8045006504187944  0.4152723159075209  0.0705302087783517
  0.1954993495812057  0.5847276840924791  0.9294697912216484
  0.3045006504187944  0.0847276840924791  0.9294697912216484
  0.6954993495812056  0.9152723159075210  0.0705302087783517
  0.6954993495812056  0.4152723159075209  0.4294697912216483
  0.3045006504187944  0.5847276840924790  0.5705302087783516
  0.6954993495812056  0.5847276840924790  0.5705302087783516
  0.3045006504187944  0.4152723159075209  0.4294697912216483
  0.3045006504187944  0.9152723159075209  0.0705302087783517
  0.6954993495812056  0.0847276840924791  0.9294697912216484
  0.6951061188476094  0.5707867260292001  0.0847383216886074
  0.3048938811523905  0.4292132739707999  0.9152616783113926
  0.3048938811523905  0.9292132739707999  0.5847383216886074
  0.6951061188476094  0.0707867260292001  0.4152616783113926
  0.3048938811523905  0.0707867260292001  0.4152616783113926
  0.6951061188476094  0.9292132739707999  0.5847383216886074
  0.6951061188476094  0.4292132739707999  0.9152616783113926
  0.3048938811523905  0.5707867260292001  0.0847383216886074
  0.1951061188476095  0.0707867260292001  0.0847383216886074
  0.8048938811523906  0.9292132739707999  0.9152616783113926
  0.8048938811523906  0.4292132739707999  0.5847383216886074
  0.1951061188476095  0.5707867260292001  0.4152616783113926
  0.8048938811523906  0.5707867260292001  0.4152616783113926
  0.1951061188476095  0.4292132739707999  0.5847383216886074
  0.1951061188476095  0.9292132739707999  0.9152616783113926
  0.8048938811523906  0.0707867260292001  0.0847383216886074
  0.0790696942761883  0.7911963415949906  0.1861826361967782
  0.9209303277238066  0.2088036584050094  0.8138173928032205
  0.9209303277238066  0.7088036584050094  0.6861826071967795
  0.0790696942761883  0.2911963415949906  0.3138173638032218
  0.9209303277238066  0.2911963415949906  0.3138173638032218
  0.0790696942761883  0.7088036584050094  0.6861826071967795
  0.0790696942761883  0.2088036584050094  0.8138173928032205
  0.9209303277238066  0.7911963415949906  0.1861826361967782
  0.5790696722761934  0.2911963415949906  0.1861826361967782
  0.4209302987238075  0.7088036584050094  0.8138173928032205
  0.4209302987238075  0.2088036584050094  0.6861826071967795
  0.5790696722761934  0.7911963415949906  0.3138173638032218
  0.4209302987238075  0.7911963415949906  0.3138173638032218
  0.5790696722761934  0.2088036584050094  0.6861826071967795
  0.5790696722761934  0.7088036584050094  0.8138173928032205
  0.4209302987238075  0.2911963415949906  0.1861826361967782
 -0.0000000000000000  0.5961326037978794  0.2047071473835448
 -0.0000000000000000  0.4038673962021206  0.7952928226164527
 -0.0000000000000000  0.9038673962021206  0.7047071773835473
 -0.0000000000000000  0.0961326037978794  0.2952928526164552
  0.5000000000000000  0.0961326037978794  0.2047071473835448
  0.5000000000000000  0.9038673962021206  0.7952928226164527
  0.5000000000000000  0.4038673962021206  0.7047071773835473
  0.5000000000000000  0.5961326037978794  0.2952928526164552
 -0.0000000000000000  0.7284807599123291  0.2168012207516232
 -0.0000000000000000  0.2715192400876709  0.7831987642483791
 -0.0000000000000000  0.7715192400876709  0.7168012357516209
 -0.0000000000000000  0.2284807599123291  0.2831987642483791
  0.5000000000000000  0.2284807599123291  0.2168012207516232
  0.5000000000000000  0.7715192400876709  0.7831987642483791
  0.5000000000000000  0.2715192400876709  0.7168012357516209
  0.5000000000000000  0.7284807599123291  0.2831987642483791
  0.7497475364212853  0.5000000000000000  0.0000000000000000
  0.2502524635787146  0.5000000000000000  0.0000000000000000
  0.2502524635787146 -0.0000000000000000  0.5000000000000000
  0.7497475364212853  0.0000000000000000  0.5000000000000000
  0.2497475364212854  0.0000000000000000  0.0000000000000000
  0.7502524635787147  0.0000000000000000  0.0000000000000000
  0.7502524635787147  0.5000000000000000  0.5000000000000000
  0.2497475364212854  0.5000000000000000  0.5000000000000000
 
  0.00000000E+00  0.00000000E+00  0.00000000E+00
  0.00000000E+00  0.00000000E+00  0.00000000E+00
  0.00000000E+00  0.00000000E+00  0.00000000E+00
  0.00000000E+00  0.00000000E+00  0.00000000E+00
  0.00000000E+00  0.00000000E+00  0.00000000E+00
  0.00000000E+00  0.00000000E+00  0.00000000E+00
  0.00000000E+00  0.00000000E+00  0.00000000E+00
  0.00000000E+00  0.00000000E+00  0.00000000E+00
  0.00000000E+00  0.00000000E+00  0.00000000E+00
  0.00000000E+00  0.00000000E+00  0.00000000E+00
  0.00000000E+00  0.00000000E+00  0.00000000E+00
  0.00000000E+00  0.00000000E+00  0.00000000E+00
  0.00000000E+00  0.00000000E+00  0.00000000E+00
  0.00000000E+00  0.00000000E+00  0.00000000E+00
  0.00000000E+00  0.00000000E+00  0.00000000E+00
  0.00000000E+00  0.00000000E+00  0.00000000E+00
  0.00000000E+00  0.00000000E+00  0.00000000E+00
  0.00000000E+00  0.00000000E+00  0.00000000E+00
  0.00000000E+00  0.00000000E+00  0.00000000E+00
  0.00000000E+00  0.00000000E+00  0.00000000E+00
  0.00000000E+00  0.00000000E+00  0.00000000E+00
  0.00000000E+00  0.00000000E+00  0.00000000E+00
  0.00000000E+00  0.00000000E+00  0.00000000E+00
  0.00000000E+00  0.00000000E+00  0.00000000E+00
  0.00000000E+00  0.00000000E+00  0.00000000E+00
  0.00000000E+00  0.00000000E+00  0.00000000E+00
  0.00000000E+00  0.00000000E+00  0.00000000E+00
  0.00000000E+00  0.00000000E+00  0.00000000E+00
  0.00000000E+00  0.00000000E+00  0.00000000E+00
  0.00000000E+00  0.00000000E+00  0.00000000E+00
  0.00000000E+00  0.00000000E+00  0.00000000E+00
  0.00000000E+00  0.00000000E+00  0.00000000E+00
  0.00000000E+00  0.00000000E+00  0.00000000E+00
  0.00000000E+00  0.00000000E+00  0.00000000E+00
  0.00000000E+00  0.00000000E+00  0.00000000E+00
  0.00000000E+00  0.00000000E+00  0.00000000E+00
  0.00000000E+00  0.00000000E+00  0.00000000E+00
  0.00000000E+00  0.00000000E+00  0.00000000E+00
  0.00000000E+00  0.00000000E+00  0.00000000E+00
  0.00000000E+00  0.00000000E+00  0.00000000E+00
  0.00000000E+00  0.00000000E+00  0.00000000E+00
  0.00000000E+00  0.00000000E+00  0.00000000E+00
  0.00000000E+00  0.00000000E+00  0.00000000E+00
  0.00000000E+00  0.00000000E+00  0.00000000E+00
  0.00000000E+00  0.00000000E+00  0.00000000E+00
  0.00000000E+00  0.00000000E+00  0.00000000E+00
  0.00000000E+00  0.00000000E+00  0.00000000E+00
  0.00000000E+00  0.00000000E+00  0.00000000E+00
  0.00000000E+00  0.00000000E+00  0.00000000E+00
  0.00000000E+00  0.00000000E+00  0.00000000E+00
  0.00000000E+00  0.00000000E+00  0.00000000E+00
  0.00000000E+00  0.00000000E+00  0.00000000E+00
  0.00000000E+00  0.00000000E+00  0.00000000E+00
  0.00000000E+00  0.00000000E+00  0.00000000E+00
  0.00000000E+00  0.00000000E+00  0.00000000E+00
  0.00000000E+00  0.00000000E+00  0.00000000E+00
  0.00000000E+00  0.00000000E+00  0.00000000E+00
  0.00000000E+00  0.00000000E+00  0.00000000E+00
  0.00000000E+00  0.00000000E+00  0.00000000E+00
  0.00000000E+00  0.00000000E+00  0.00000000E+00
  0.00000000E+00  0.00000000E+00  0.00000000E+00
  0.00000000E+00  0.00000000E+00  0.00000000E+00
  0.00000000E+00  0.00000000E+00  0.00000000E+00
  0.00000000E+00  0.00000000E+00  0.00000000E+00
  0.00000000E+00  0.00000000E+00  0.00000000E+00
  0.00000000E+00  0.00000000E+00  0.00000000E+00
  0.00000000E+00  0.00000000E+00  0.00000000E+00
  0.00000000E+00  0.00000000E+00  0.00000000E+00
  0.00000000E+00  0.00000000E+00  0.00000000E+00
  0.00000000E+00  0.00000000E+00  0.00000000E+00
  0.00000000E+00  0.00000000E+00  0.00000000E+00
  0.00000000E+00  0.00000000E+00  0.00000000E+00
