methane-1                               
   1.00000000000000     
     6.3499999045999997    0.0000000000000000    0.0000000000000000
     0.0000000000000000    6.3499999045999997    0.0000000000000000
     0.0000000000000000    0.0000000000000000    6.3499999045999997
   H    C 
    16     4
Direct
  0.6200400825429313  0.5464848610164714  0.2039912818832707
  0.5682709837870737  0.6676175002152667  0.8635431089160450
  0.5879312733431493  0.3214019191245922  0.9093393564846470
  0.3090468461291176  0.4999418219448713  0.0369350144136835
  0.9517598498916131  0.1298806953730156  0.1590681179385980
  0.9378923541274691  0.0859179893770556  0.8203200038260811
  0.2022112121276309  0.9344477600479064  0.0011039781610174
  0.8812715613419261  0.8114108078573499  0.0593935377206112
  0.0975032169551619  0.5356321854950529  0.6972757847010607
  0.0376184393303048  0.6676059891802385  0.3727032329775143
  0.0552225831654185  0.3181803408050605  0.4144572312752723
  0.7775754925982962  0.4917572157322355  0.5472174911549773
  0.5918581894915320  0.0317551708816887  0.6725468436427239
  0.5394997706297489  0.1550221733301141  0.3436208241262096
  0.5586845167859950  0.8165677306705905  0.3829446562691622
  0.2726493753239951  0.9858786580419854  0.5243255207779244
  0.5139425848484135  0.5041078478403099  0.0008583946400803
  0.0034726825349809  0.9899161315490925  0.0013897357674006
  0.9920524968597902  0.5111472153010115  0.5166670295270587
  0.4856065761854534  0.0044060682160880  0.4773788037966712
 
  0.00000000E+00  0.00000000E+00  0.00000000E+00
  0.00000000E+00  0.00000000E+00  0.00000000E+00
  0.00000000E+00  0.00000000E+00  0.00000000E+00
  0.00000000E+00  0.00000000E+00  0.00000000E+00
  0.00000000E+00  0.00000000E+00  0.00000000E+00
  0.00000000E+00  0.00000000E+00  0.00000000E+00
  0.00000000E+00  0.00000000E+00  0.00000000E+00
  0.00000000E+00  0.00000000E+00  0.00000000E+00
  0.00000000E+00  0.00000000E+00  0.00000000E+00
  0.00000000E+00  0.00000000E+00  0.00000000E+00
  0.00000000E+00  0.00000000E+00  0.00000000E+00
  0.00000000E+00  0.00000000E+00  0.00000000E+00
  0.00000000E+00  0.00000000E+00  0.00000000E+00
  0.00000000E+00  0.00000000E+00  0.00000000E+00
  0.00000000E+00  0.00000000E+00  0.00000000E+00
  0.00000000E+00  0.00000000E+00  0.00000000E+00
  0.00000000E+00  0.00000000E+00  0.00000000E+00
  0.00000000E+00  0.00000000E+00  0.00000000E+00
  0.00000000E+00  0.00000000E+00  0.00000000E+00
  0.00000000E+00  0.00000000E+00  0.00000000E+00
