methane-high                            
   1.00000000000000     
    11.7079000473000008    0.0000000000000000    0.0000000000000000
     0.0000000000000000    8.1892995834000004    0.0000000000000000
     0.0000000000000000    0.0000000000000000    8.1842002868999995
   H    C 
    56    16
Direct
  0.8040789543854764  0.5838406067477522  0.9306521269277366
  0.1959210456145237  0.4161593932522475  0.0693478730722636
  0.1959210456145237  0.9161593932522478  0.4306521269277364
  0.8040789543854764  0.0838406067477524  0.5693478730722634
  0.1959210456145237  0.0838406067477524  0.5693478730722634
  0.8040789543854764  0.9161593932522478  0.4306521269277364
  0.8040789543854764  0.4161593932522475  0.0693478730722636
  0.1959210456145237  0.5838406067477523  0.9306521269277366
  0.3040789543854763  0.0838406067477524  0.9306521269277366
  0.6959210456145236  0.9161593932522478  0.0693478730722636
  0.6959210456145236  0.4161593932522475  0.4306521269277364
  0.3040789543854763  0.5838406067477522  0.5693478730722634
  0.6959210456145236  0.5838406067477522  0.5693478730722634
  0.3040789543854763  0.4161593932522475  0.4306521269277364
  0.3040789543854763  0.9161593932522477  0.0693478730722636
  0.6959210456145236  0.0838406067477524  0.9306521269277366
  0.6954850586907741  0.5702172625084233  0.0836764734771236
  0.3045149413092257  0.4297827374915766  0.9163235265228764
  0.3045149413092257  0.9297827374915767  0.5836764734771236
  0.6954850586907741  0.0702172625084233  0.4163235265228764
  0.3045149413092257  0.0702172625084233  0.4163235265228764
  0.6954850586907741  0.9297827374915767  0.5836764734771236
  0.6954850586907741  0.4297827374915766  0.9163235265228764
  0.3045149413092257  0.5702172625084233  0.0836764734771236
  0.1954850586907743  0.0702172625084233  0.0836764734771236
  0.8045149413092259  0.9297827374915767  0.9163235265228764
  0.8045149413092259  0.4297827374915766  0.5836764734771236
  0.1954850586907743  0.5702172625084233  0.4163235265228764
  0.8045149413092259  0.5702172625084233  0.4163235265228764
  0.1954850586907743  0.4297827374915766  0.5836764734771236
  0.1954850586907743  0.9297827374915767  0.9163235265228764
  0.8045149413092259  0.0702172625084233  0.0836764734771236
  0.0803551555192679  0.7928955210740364  0.1910616740379985
  0.9196448664807270  0.2071044789259637  0.8089383549620003
  0.9196448664807270  0.7071044789259636  0.6910616450379997
  0.0803551555192679  0.2928955210740364  0.3089383259620016
  0.9196448664807270  0.2928955210740364  0.3089383259620016
  0.0803551555192679  0.7071044789259636  0.6910616450379997
  0.0803551555192679  0.2071044789259637  0.8089383549620003
  0.9196448664807270  0.7928955210740364  0.1910616740379985
  0.5803551335192730  0.2928955210740364  0.1910616740379985
  0.4196448374807280  0.7071044789259636  0.8089383549620003
  0.4196448374807280  0.2071044789259637  0.6910616450379997
  0.5803551335192730  0.7928955210740364  0.3089383259620016
  0.4196448374807280  0.7928955210740364  0.3089383259620016
  0.5803551335192730  0.2071044789259637  0.6910616450379997
  0.5803551335192730  0.7071044789259636  0.8089383549620003
  0.4196448374807280  0.2928955210740364  0.1910616740379985
 -0.0000000000000000  0.5950084441121124  0.2100137683543231
 -0.0000000000000000  0.4049915558878877  0.7899862016456746
 -0.0000000000000000  0.9049915558878876  0.7100137983543254
 -0.0000000000000000  0.0950084441121124  0.2899862316456768
  0.5000000000000000  0.0950084441121124  0.2100137683543231
  0.5000000000000000  0.9049915558878876  0.7899862016456746
  0.5000000000000000  0.4049915558878877  0.7100137983543254
  0.5000000000000000  0.5950084441121124  0.2899862316456768
 -0.0000000000000000  0.7272815325086597  0.2009657577088919
 -0.0000000000000000  0.2727184674913402  0.7990342272911104
 -0.0000000000000000  0.7727184674913403  0.7009657727088896
 -0.0000000000000000  0.2272815325086598  0.2990342272911105
  0.5000000000000000  0.2272815325086598  0.2009657577088919
  0.5000000000000000  0.7727184674913403  0.7990342272911104
  0.5000000000000000  0.2727184674913402  0.7009657727088896
  0.5000000000000000  0.7272815325086597  0.2990342272911105
  0.7496635669839521  0.5000000000000000  0.0000000000000000
  0.2503364330160480  0.5000000000000000  0.0000000000000000
  0.2503364330160480 -0.0000000000000000  0.5000000000000000
  0.7496635669839521 -0.0000000000000000  0.5000000000000000
  0.2496635669839520 -0.0000000000000000  0.0000000000000000
  0.7503364330160479 -0.0000000000000000  0.0000000000000000
  0.7503364330160479  0.5000000000000000  0.5000000000000000
  0.2496635669839520  0.5000000000000000  0.5000000000000000
 
  0.00000000E+00  0.00000000E+00  0.00000000E+00
  0.00000000E+00  0.00000000E+00  0.00000000E+00
  0.00000000E+00  0.00000000E+00  0.00000000E+00
  0.00000000E+00  0.00000000E+00  0.00000000E+00
  0.00000000E+00  0.00000000E+00  0.00000000E+00
  0.00000000E+00  0.00000000E+00  0.00000000E+00
  0.00000000E+00  0.00000000E+00  0.00000000E+00
  0.00000000E+00  0.00000000E+00  0.00000000E+00
  0.00000000E+00  0.00000000E+00  0.00000000E+00
  0.00000000E+00  0.00000000E+00  0.00000000E+00
  0.00000000E+00  0.00000000E+00  0.00000000E+00
  0.00000000E+00  0.00000000E+00  0.00000000E+00
  0.00000000E+00  0.00000000E+00  0.00000000E+00
  0.00000000E+00  0.00000000E+00  0.00000000E+00
  0.00000000E+00  0.00000000E+00  0.00000000E+00
  0.00000000E+00  0.00000000E+00  0.00000000E+00
  0.00000000E+00  0.00000000E+00  0.00000000E+00
  0.00000000E+00  0.00000000E+00  0.00000000E+00
  0.00000000E+00  0.00000000E+00  0.00000000E+00
  0.00000000E+00  0.00000000E+00  0.00000000E+00
  0.00000000E+00  0.00000000E+00  0.00000000E+00
  0.00000000E+00  0.00000000E+00  0.00000000E+00
  0.00000000E+00  0.00000000E+00  0.00000000E+00
  0.00000000E+00  0.00000000E+00  0.00000000E+00
  0.00000000E+00  0.00000000E+00  0.00000000E+00
  0.00000000E+00  0.00000000E+00  0.00000000E+00
  0.00000000E+00  0.00000000E+00  0.00000000E+00
  0.00000000E+00  0.00000000E+00  0.00000000E+00
  0.00000000E+00  0.00000000E+00  0.00000000E+00
  0.00000000E+00  0.00000000E+00  0.00000000E+00
  0.00000000E+00  0.00000000E+00  0.00000000E+00
  0.00000000E+00  0.00000000E+00  0.00000000E+00
  0.00000000E+00  0.00000000E+00  0.00000000E+00
  0.00000000E+00  0.00000000E+00  0.00000000E+00
  0.00000000E+00  0.00000000E+00  0.00000000E+00
  0.00000000E+00  0.00000000E+00  0.00000000E+00
  0.00000000E+00  0.00000000E+00  0.00000000E+00
  0.00000000E+00  0.00000000E+00  0.00000000E+00
  0.00000000E+00  0.00000000E+00  0.00000000E+00
  0.00000000E+00  0.00000000E+00  0.00000000E+00
  0.00000000E+00  0.00000000E+00  0.00000000E+00
  0.00000000E+00  0.00000000E+00  0.00000000E+00
  0.00000000E+00  0.00000000E+00  0.00000000E+00
  0.00000000E+00  0.00000000E+00  0.00000000E+00
  0.00000000E+00  0.00000000E+00  0.00000000E+00
  0.00000000E+00  0.00000000E+00  0.00000000E+00
  0.00000000E+00  0.00000000E+00  0.00000000E+00
  0.00000000E+00  0.00000000E+00  0.00000000E+00
  0.00000000E+00  0.00000000E+00  0.00000000E+00
  0.00000000E+00  0.00000000E+00  0.00000000E+00
  0.00000000E+00  0.00000000E+00  0.00000000E+00
  0.00000000E+00  0.00000000E+00  0.00000000E+00
  0.00000000E+00  0.00000000E+00  0.00000000E+00
  0.00000000E+00  0.00000000E+00  0.00000000E+00
  0.00000000E+00  0.00000000E+00  0.00000000E+00
  0.00000000E+00  0.00000000E+00  0.00000000E+00
  0.00000000E+00  0.00000000E+00  0.00000000E+00
  0.00000000E+00  0.00000000E+00  0.00000000E+00
  0.00000000E+00  0.00000000E+00  0.00000000E+00
  0.00000000E+00  0.00000000E+00  0.00000000E+00
  0.00000000E+00  0.00000000E+00  0.00000000E+00
  0.00000000E+00  0.00000000E+00  0.00000000E+00
  0.00000000E+00  0.00000000E+00  0.00000000E+00
  0.00000000E+00  0.00000000E+00  0.00000000E+00
  0.00000000E+00  0.00000000E+00  0.00000000E+00
  0.00000000E+00  0.00000000E+00  0.00000000E+00
  0.00000000E+00  0.00000000E+00  0.00000000E+00
  0.00000000E+00  0.00000000E+00  0.00000000E+00
  0.00000000E+00  0.00000000E+00  0.00000000E+00
  0.00000000E+00  0.00000000E+00  0.00000000E+00
  0.00000000E+00  0.00000000E+00  0.00000000E+00
  0.00000000E+00  0.00000000E+00  0.00000000E+00
