check                                   
   1.00000000000000     
     6.3499999045999997    0.0000000000000000    0.0000000000000000
     0.0000000000000000    6.3499999045999997    0.0000000000000000
     0.0000000000000000    0.0000000000000000    6.3499999045999997
   H    C 
    16     4
Direct
  0.4558799859999993  0.8345999719999995  0.5393199920000029
  0.4558799859999993  0.0419000010000019  0.3320200149999977
  0.4558799859999993  0.1177700009999967  0.6151999829999966
  0.6952499750000030  0.9980900289999965  0.4955100119999969
  0.6003000139999983  0.5296800140000002  0.1502600009999995
  0.5493199829999966  0.6340900060000010  0.8960099820000025
  0.5697000030000012  0.3576500120000006  0.9320700170000009
  0.3487600090000029  0.4958699940000031  0.0331300010000035
  0.0822399999999988  0.0155799999999999  0.1530400070000013
  0.0312599989999995  0.1199899989999977  0.8987900019999984
  0.0516399999999990  0.8435500260000026  0.9348499769999989
  0.8306999799999986  0.9817699789999992  0.0359099989999976
  0.0756200029999974  0.5322300200000001  0.6603099700000001
  0.0246399990000015  0.6366400120000009  0.4060499969999967
  0.0450199989999973  0.3601999879999980  0.4421199860000016
  0.8240699770000006  0.4984200000000030  0.5431699749999979
  0.5157200100000026  0.9980900289999965  0.4955100119999969
  0.5170300010000020  0.5043299789999978  0.0028700000000015
  0.9989600179999982  0.9902300239999988  0.0056500000000028
  0.9923400280000010  0.5068799849999976  0.5129200220000030
 
  0.00000000E+00  0.00000000E+00  0.00000000E+00
  0.00000000E+00  0.00000000E+00  0.00000000E+00
  0.00000000E+00  0.00000000E+00  0.00000000E+00
  0.00000000E+00  0.00000000E+00  0.00000000E+00
  0.00000000E+00  0.00000000E+00  0.00000000E+00
  0.00000000E+00  0.00000000E+00  0.00000000E+00
  0.00000000E+00  0.00000000E+00  0.00000000E+00
  0.00000000E+00  0.00000000E+00  0.00000000E+00
  0.00000000E+00  0.00000000E+00  0.00000000E+00
  0.00000000E+00  0.00000000E+00  0.00000000E+00
  0.00000000E+00  0.00000000E+00  0.00000000E+00
  0.00000000E+00  0.00000000E+00  0.00000000E+00
  0.00000000E+00  0.00000000E+00  0.00000000E+00
  0.00000000E+00  0.00000000E+00  0.00000000E+00
  0.00000000E+00  0.00000000E+00  0.00000000E+00
  0.00000000E+00  0.00000000E+00  0.00000000E+00
  0.00000000E+00  0.00000000E+00  0.00000000E+00
  0.00000000E+00  0.00000000E+00  0.00000000E+00
  0.00000000E+00  0.00000000E+00  0.00000000E+00
  0.00000000E+00  0.00000000E+00  0.00000000E+00
