methane-0                               
   1.00000000000000     
     6.3499999045999997    0.0000000000000000    0.0000000000000000
     0.0000000000000000    6.3499999045999997    0.0000000000000000
     0.0000000000000000    0.0000000000000000    6.3499999045999997
   H    C 
    16     4
Direct
  0.6003000139999983  0.5296800140000002  0.1502600009999995
  0.5493199829999966  0.6340900060000010  0.8960099820000025
  0.5697000030000012  0.3576500120000006  0.9320700170000009
  0.3487600090000029  0.4958699940000031  0.0331300010000035
  0.0756200550000017  0.5322300200000001  0.6603099700000001
  0.0246399640000021  0.6366400120000009  0.4060499969999967
  0.0450199839999996  0.3601999879999980  0.4421199860000016
  0.8240699770000006  0.4984200000000030  0.5431699749999979
  0.5717800259999990  0.0257500410000020  0.6269800070000002
  0.5207999940000008  0.1301599740000015  0.3727299869999996
  0.5411800150000019  0.8537200089999999  0.4087899920000027
  0.3202399910000011  0.9919400220000014  0.5098400119999980
  0.0807399750000002  0.0240100010000006  0.1457999940000008
  0.0297700169999970  0.1284199950000016  0.8915500040000026
  0.0501400229999973  0.8519799709999987  0.9276099799999997
  0.8292000289999990  0.9901999829999966  0.0286699999999982
  0.5170300010000020  0.5043299789999978  0.0028700000000015
  0.9923400280000010  0.5068799849999976  0.5129200220000030
  0.4884999989999983  0.0003999469999982  0.4795899989999981
  0.9974700209999980  0.9986500139999990  0.9984200000000030
 
  0.00000000E+00  0.00000000E+00  0.00000000E+00
  0.00000000E+00  0.00000000E+00  0.00000000E+00
  0.00000000E+00  0.00000000E+00  0.00000000E+00
  0.00000000E+00  0.00000000E+00  0.00000000E+00
  0.00000000E+00  0.00000000E+00  0.00000000E+00
  0.00000000E+00  0.00000000E+00  0.00000000E+00
  0.00000000E+00  0.00000000E+00  0.00000000E+00
  0.00000000E+00  0.00000000E+00  0.00000000E+00
  0.00000000E+00  0.00000000E+00  0.00000000E+00
  0.00000000E+00  0.00000000E+00  0.00000000E+00
  0.00000000E+00  0.00000000E+00  0.00000000E+00
  0.00000000E+00  0.00000000E+00  0.00000000E+00
  0.00000000E+00  0.00000000E+00  0.00000000E+00
  0.00000000E+00  0.00000000E+00  0.00000000E+00
  0.00000000E+00  0.00000000E+00  0.00000000E+00
  0.00000000E+00  0.00000000E+00  0.00000000E+00
  0.00000000E+00  0.00000000E+00  0.00000000E+00
  0.00000000E+00  0.00000000E+00  0.00000000E+00
  0.00000000E+00  0.00000000E+00  0.00000000E+00
  0.00000000E+00  0.00000000E+00  0.00000000E+00
