methane
1.0
        6.3499999046         0.0000000000         0.0000000000
        0.0000000000         6.3499999046         0.0000000000
        0.0000000000         0.0000000000         6.3499999046
    H    C
   16    4
Direct
     0.455879986         0.834599972         0.539319992
     0.455879986         0.041900001         0.332020015
     0.455879986         0.117770001         0.615199983
     0.695249975         0.998090029         0.495510012
     0.600300014         0.529680014         0.150260001
     0.549319983         0.634090006         0.896009982
     0.569700003         0.357650012         0.932070017
     0.348760009         0.495869994         0.033130001
     0.082239985         0.015580058         0.153040007
     0.031260014         0.119989991         0.898790002
     0.051640034         0.843550026         0.934849977
     0.830699980         0.981769979         0.035909999
     0.075620055         0.532230020         0.660309970
     0.024639964         0.636640012         0.406049997
     0.045019984         0.360199988         0.442119986
     0.824069977         0.498420000         0.543169975
     0.515720010         0.998090029         0.495510012
     0.517030001         0.504329979         0.002870000
     0.998960018         0.990230024         0.005650000
     0.992340028         0.506879985         0.512920022
