methane-0
1.0
        6.3499999046         0.0000000000         0.0000000000
        0.0000000000         6.3499999046         0.0000000000
        0.0000000000         0.0000000000         6.3499999046
    H    C
   16    4
Direct
     0.600300014         0.529680014         0.150260001
     0.549319983         0.634090006         0.896009982
     0.569700003         0.357650012         0.932070017
     0.348760009         0.495869994         0.033130001
     0.075620055         0.532230020         0.660309970
     0.024639964         0.636640012         0.406049997
     0.045019984         0.360199988         0.442119986
     0.824069977         0.498420000         0.543169975
     0.571780026         0.025750041         0.626980007
     0.520799994         0.130159974         0.372729987
     0.541180015         0.853720009         0.408789992
     0.320239991         0.991940022         0.509840012
     0.080739975         0.024010001         0.145799994
     0.029770017         0.128419995         0.891550004
     0.050140023         0.851979971         0.927609980
     0.829200029         0.990199983         0.028670000
     0.517030001         0.504329979         0.002870000
     0.992340028         0.506879985         0.512920022
     0.488499999         0.000399947         0.479589999
     0.997470021         0.998650014         0.998420000
