C
   1.0
     5.2325901985999996    0.0000000000000000    0.0000000000000000
     2.6162950991999998    4.5315560395999999    0.0000000000000000
     2.6162950991999998    1.5105186798000001    4.2723920063999996
  16
Direct
  0.0000000000000000  0.0000000000000000  0.0000000000000000
  0.5000000000000000  0.0000000000000000  0.0000000000000000
  0.0000000000000000  0.5000000000000000  0.0000000000000000
  0.5000000000000000  0.5000000000000000  0.0000000000000000
  0.0000000000000000  0.0000000000000000  0.5000000000000000
  0.5000000000000000  0.0000000000000000  0.5000000000000000
  0.0000000000000000  0.5000000000000000  0.5000000000000000
  0.5000000000000000  0.5000000000000000  0.5000000000000000
  0.1250000000000000  0.1250000000000000  0.1249999925000000
  0.6250000000000000  0.1250000000000000  0.1249999925000000
  0.1250000000000000  0.6250000000000000  0.1249999925000000
  0.6250000000000000  0.6250000000000000  0.1249999925000000
  0.1250000000000000  0.1250000000000000  0.6249999925000000
  0.6250000000000000  0.1250000000000000  0.6249999925000000
  0.1250000000000000  0.6250000000000000  0.6249999925000000
  0.6250000000000000  0.6250000000000000  0.6249999925000000
