CIF file                                
   1.00000000000000     
     2.4661411108786422    0.0029395190993480    0.0000000000000000
    -1.2305248571743250    2.1372106108455267    0.0000000000000000
     0.0000000000000000    0.0000000000000000    8.0424815259999995
   C 
     4
Direct
  0.9995180243614934  0.0004820219781143  0.2500000000000000
  0.0004820219781143  0.9995180243614934  0.7500000000000000
  0.3329181317616045  0.6670818508987866  0.2500000000000000
  0.6670818508987866  0.3329181317616045  0.7500000000000000
 
  0.00000000E+00  0.00000000E+00  0.00000000E+00
  0.00000000E+00  0.00000000E+00  0.00000000E+00
  0.00000000E+00  0.00000000E+00  0.00000000E+00
  0.00000000E+00  0.00000000E+00  0.00000000E+00
