C2 H4                                   
  0.943538796000000     
     4.8699998856000004    0.0000000000000000    0.0000000000000000
     0.0000000000000000    6.4600000380999996    0.0000000000000000
     0.0000000000000000    0.0000000000000000    4.1400000953999996
   C    H 
     4     8
Direct
  0.8805796956356724  0.0570287439868778  0.9625121264799311
  0.1194203193643323  0.9429712410131174  0.0374878475200667
  0.6194203043643276  0.5570287589868826  0.5374878735200689
  0.3805796956356725  0.4429712410131174  0.4625121564799335
  0.7980003954053857  0.1850197160356092  0.1316621805206266
  0.2019995895946096  0.8149802979643921  0.8683378274793742
  0.7019996045946143  0.6850197020356080  0.3683378274793739
  0.2980003954053857  0.3149802979643919  0.6316621725206258
  0.7584301410906570  0.0264829203183713  0.7281849805810590
  0.2415698289093407  0.9735170856816294  0.2718149894189384
  0.7415698589093430  0.5264829143183706  0.7718150194189410
  0.2584301710906592  0.4735170856816291  0.2281850105810616
 
  0.00000000E+00  0.00000000E+00  0.00000000E+00
  0.00000000E+00  0.00000000E+00  0.00000000E+00
  0.00000000E+00  0.00000000E+00  0.00000000E+00
  0.00000000E+00  0.00000000E+00  0.00000000E+00
  0.00000000E+00  0.00000000E+00  0.00000000E+00
  0.00000000E+00  0.00000000E+00  0.00000000E+00
  0.00000000E+00  0.00000000E+00  0.00000000E+00
  0.00000000E+00  0.00000000E+00  0.00000000E+00
  0.00000000E+00  0.00000000E+00  0.00000000E+00
  0.00000000E+00  0.00000000E+00  0.00000000E+00
  0.00000000E+00  0.00000000E+00  0.00000000E+00
  0.00000000E+00  0.00000000E+00  0.00000000E+00
