C2 H4
0.943538796
        4.8699998856         0.0000000000         0.0000000000
        0.0000000000         6.4600000381         0.0000000000
        0.0000000000         0.0000000000         4.1400000954
    C    H
    4    8
Direct
     0.883440018         0.053819999         0.959249973
     0.116559997         0.946179986         0.040750001
     0.616559982         0.553820014         0.540750027
     0.383440018         0.446179986         0.459250003
     0.813099980         0.169799998         0.118500002
     0.186900005         0.830200016         0.881500006
     0.686900020         0.669799984         0.381500006
     0.313099980         0.330200016         0.618499994
     0.756999969         0.028700000         0.731099963
     0.243000001         0.971300006         0.268900007
     0.743000031         0.528699994         0.768900037
     0.256999999         0.471300006         0.231099993
