methane                                 
  0.986484830000000     
     6.3499999045999997    0.0000000000000000    0.0000000000000000
     0.0000000000000000    6.3499999045999997    0.0000000000000000
     0.0000000000000000    0.0000000000000000    6.3499999045999997
   H    C 
    16     4
Direct
  0.5718988404464255  0.6656324608463039  0.6930403273879243
  0.4001335605055080 -0.0269092688857169  0.1592344731542728
  0.3848468860798031  0.2233238723201118  0.7275914340464202
  0.8769031989235920  0.0964745065221703  0.4718690615314311
  0.7787306476215865  0.5044483896334861  0.3788164247845818
  0.4696493740063605  0.7289804122602918  0.8686768634654450
  0.5197810821115884  0.1158460957614397  0.8264779113040480
  0.2908816794705133  0.6022970630959518 -0.0263768080609060
  0.2471676514323962 -0.0279741987998094  0.2855385299549729
  0.1860729623413676  0.3152711252948834  0.6910098765251929
  0.0632788111440033  0.6595767221763094  0.9202796672723177
  0.4933378082532314 -0.0602435136536160 -0.0373368757088927
  0.1434413980175180  0.4884263217535489  0.8286281126445721
  0.0804131458995587  0.0403441911634978  0.4015251103851660
  0.0500639004833810  0.2006230961467196  0.5582192761696286
  0.6813639074062653  0.5941872163668367  0.5317469526814526
  0.7092418677686658  0.0548578417970676  0.4836135449894571
  0.3346031282583345  0.5349103577710096  0.1293715503406196
 -0.0651489065738826  0.7748558914871193 -0.0671635382616849
  0.9035490484037914  0.5126315369423827  0.2599480553939775
 
  0.00000000E+00  0.00000000E+00  0.00000000E+00
  0.00000000E+00  0.00000000E+00  0.00000000E+00
  0.00000000E+00  0.00000000E+00  0.00000000E+00
  0.00000000E+00  0.00000000E+00  0.00000000E+00
  0.00000000E+00  0.00000000E+00  0.00000000E+00
  0.00000000E+00  0.00000000E+00  0.00000000E+00
  0.00000000E+00  0.00000000E+00  0.00000000E+00
  0.00000000E+00  0.00000000E+00  0.00000000E+00
  0.00000000E+00  0.00000000E+00  0.00000000E+00
  0.00000000E+00  0.00000000E+00  0.00000000E+00
  0.00000000E+00  0.00000000E+00  0.00000000E+00
  0.00000000E+00  0.00000000E+00  0.00000000E+00
  0.00000000E+00  0.00000000E+00  0.00000000E+00
  0.00000000E+00  0.00000000E+00  0.00000000E+00
  0.00000000E+00  0.00000000E+00  0.00000000E+00
  0.00000000E+00  0.00000000E+00  0.00000000E+00
  0.00000000E+00  0.00000000E+00  0.00000000E+00
  0.00000000E+00  0.00000000E+00  0.00000000E+00
  0.00000000E+00  0.00000000E+00  0.00000000E+00
  0.00000000E+00  0.00000000E+00  0.00000000E+00
