methane                                 
  0.986484830000000     
     6.3499999045999997    0.0000000000000000    0.0000000000000000
     0.0000000000000000    6.3499999045999997    0.0000000000000000
     0.0000000000000000    0.0000000000000000    6.3499999045999997
   H    C 
    16     4
Direct
  0.4627143402660522  0.7000162689161913  0.5890864504037419
  0.4206215785433972  0.0473699199797018  0.2069061090872285
  0.3985912766451676  0.2000700317919161  0.7062986858155994
  0.8285294427411783  0.9930708412293677  0.4643885338949453
  0.6995726379117535  0.5369410870487559  0.3640836604543085
  0.6105017757232950  0.7583796368568138  0.7775488502610483
  0.6087439049457855  0.1840472615927352  0.8616035145145639
  0.1879503502929139  0.5236422220909916  0.0122268997857614
  0.2052222472542607 -0.0154837398219467  0.3076411420771923
  0.1425178773235294  0.2929254940268212  0.7656201443675401
  0.0880010915442234  0.7220424927637197  0.9086504044798429
  0.5879485636733134 -0.0017982930732194  0.0590516737658674
  0.1112417203099162  0.5349940106654969  0.8324405780681562
  0.0779914146487601  0.8284989039786341  0.3129661610661316
  0.0383093827068073  0.1847645371686205  0.3935107675206971
  0.6259630372317858  0.5407651286499415  0.5403980372251981
  0.5243260282259560  0.0181550219008164  0.5054060085711707
  0.5030597997034755  0.4926049686235490  0.0119226327743287
  0.0119821199869650  0.9458063593028884 -0.0387814767540079
  0.9864214023214705  0.5107479663081946  0.5037411726206825
 
  0.00000000E+00  0.00000000E+00  0.00000000E+00
  0.00000000E+00  0.00000000E+00  0.00000000E+00
  0.00000000E+00  0.00000000E+00  0.00000000E+00
  0.00000000E+00  0.00000000E+00  0.00000000E+00
  0.00000000E+00  0.00000000E+00  0.00000000E+00
  0.00000000E+00  0.00000000E+00  0.00000000E+00
  0.00000000E+00  0.00000000E+00  0.00000000E+00
  0.00000000E+00  0.00000000E+00  0.00000000E+00
  0.00000000E+00  0.00000000E+00  0.00000000E+00
  0.00000000E+00  0.00000000E+00  0.00000000E+00
  0.00000000E+00  0.00000000E+00  0.00000000E+00
  0.00000000E+00  0.00000000E+00  0.00000000E+00
  0.00000000E+00  0.00000000E+00  0.00000000E+00
  0.00000000E+00  0.00000000E+00  0.00000000E+00
  0.00000000E+00  0.00000000E+00  0.00000000E+00
  0.00000000E+00  0.00000000E+00  0.00000000E+00
  0.00000000E+00  0.00000000E+00  0.00000000E+00
  0.00000000E+00  0.00000000E+00  0.00000000E+00
  0.00000000E+00  0.00000000E+00  0.00000000E+00
  0.00000000E+00  0.00000000E+00  0.00000000E+00
