methane                                 
  0.986484830000000     
     6.3499999045999997    0.0000000000000000    0.0000000000000000
     0.0000000000000000    6.3499999045999997    0.0000000000000000
     0.0000000000000000    0.0000000000000000    6.3499999045999997
   H    C 
    16     4
Direct
  0.4447652615794968  0.7984275086028391  0.5589967954355615
  0.4335367183411610  0.0570903051961704  0.2952917275595225
  0.4422725889067565  0.1417956055943172  0.6369939239406048
  0.7377900702599908  0.9961944317171076  0.4959431302463631
  0.6330637617043504  0.5357532684694289  0.2018078845075318
  0.5609810479052632  0.6794082890336760  0.8533233353592820
  0.5865125292062023  0.3077822676868977  0.9031803377476535
  0.2914887022097433  0.4938633934865931  0.0361824732239879
  0.1111711597709669  0.0220649868677064  0.2064650317606006
  0.0491720870116996  0.1603602407224525  0.8610200281243848
  0.0676934110406096  0.7981106818497323  0.9087796475846346
  0.7699164420002653  0.9733858092635154  0.0531638307145330
  0.0991389367009880  0.5499856896279152  0.7130659098510189
  0.0420205857465344  0.6824374507854479  0.3711723515304745
  0.0612025902178806  0.3076811209503535  0.4166076859474155
  0.7667131539132419  0.4922759770408461  0.5559863545008886
  0.5159354158971031  0.9987011763302777  0.4974721040977661
  0.5158716570541101  0.5040881795259240  0.0043667266499615
  0.9991722435779932  0.9902948682412060  0.0025082133446156
  0.9917916289556497  0.5078588690075817  0.5123824578731965
 
  0.00000000E+00  0.00000000E+00  0.00000000E+00
  0.00000000E+00  0.00000000E+00  0.00000000E+00
  0.00000000E+00  0.00000000E+00  0.00000000E+00
  0.00000000E+00  0.00000000E+00  0.00000000E+00
  0.00000000E+00  0.00000000E+00  0.00000000E+00
  0.00000000E+00  0.00000000E+00  0.00000000E+00
  0.00000000E+00  0.00000000E+00  0.00000000E+00
  0.00000000E+00  0.00000000E+00  0.00000000E+00
  0.00000000E+00  0.00000000E+00  0.00000000E+00
  0.00000000E+00  0.00000000E+00  0.00000000E+00
  0.00000000E+00  0.00000000E+00  0.00000000E+00
  0.00000000E+00  0.00000000E+00  0.00000000E+00
  0.00000000E+00  0.00000000E+00  0.00000000E+00
  0.00000000E+00  0.00000000E+00  0.00000000E+00
  0.00000000E+00  0.00000000E+00  0.00000000E+00
  0.00000000E+00  0.00000000E+00  0.00000000E+00
  0.00000000E+00  0.00000000E+00  0.00000000E+00
  0.00000000E+00  0.00000000E+00  0.00000000E+00
  0.00000000E+00  0.00000000E+00  0.00000000E+00
  0.00000000E+00  0.00000000E+00  0.00000000E+00
