methane-low                             
  0.986484830000000     
    11.7079000473000008    0.0000000000000000    0.0000000000000000
     0.0000000000000000    8.1892995834000004    0.0000000000000000
     0.0000000000000000    0.0000000000000000    8.1842002868999995
   H    C 
    64    16
Direct
  0.0774104596913811  0.7957905413559413  0.1540362309857933
  0.9225895623086136  0.2042094586440587  0.8459637980142055
  0.9225895623086136  0.7042094586440587  0.6540362019857945
  0.0774104596913811  0.2957905413559413  0.3459637690142067
  0.9225895623086136  0.2957905413559413  0.3459637690142067
  0.0774104596913811  0.7042094586440587  0.6540362019857945
  0.0774104596913811  0.2042094586440587  0.8459637980142055
  0.9225895623086136  0.7957905413559413  0.1540362309857933
  0.5774104376913864  0.2957905413559413  0.1540362309857933
  0.4225895333086147  0.7042094586440587  0.8459637980142055
  0.4225895333086147  0.2042094586440587  0.6540362019857945
  0.5774104376913864  0.7957905413559413  0.3459637690142067
  0.4225895333086147  0.7957905413559413  0.3459637690142067
  0.5774104376913864  0.2042094586440587  0.6540362019857945
  0.5774104376913864  0.7042094586440587  0.8459637980142055
  0.4225895333086147  0.2957905413559413  0.1540362309857933
  0.8046829334247227  0.5849205176821374  0.9290870677025800
  0.1953170665752773  0.4150794823178625  0.0709129322974201
  0.1953170665752773  0.9150794823178626  0.4290870677025799
  0.8046829334247227  0.0849205176821374  0.5709129322974200
  0.1953170665752773  0.0849205176821374  0.5709129322974200
  0.8046829334247227  0.9150794823178626  0.4290870677025799
  0.8046829334247227  0.4150794823178625  0.0709129322974201
  0.1953170665752773  0.5849205176821374  0.9290870677025800
  0.3046829334247227  0.0849205176821374  0.9290870677025800
  0.6953170665752773  0.9150794823178626  0.0709129322974201
  0.6953170665752773  0.4150794823178625  0.4290870677025799
  0.3046829334247227  0.5849205176821374  0.5709129322974200
  0.6953170665752773  0.5849205176821374  0.5709129322974200
  0.3046829334247227  0.4150794823178625  0.4290870677025799
  0.3046829334247227  0.9150794823178626  0.0709129322974201
  0.6953170665752773  0.0849205176821374  0.9290870677025800
  0.6951904418288661  0.5708789915652119  0.0852714529174106
  0.3048095581711340  0.4291210084347881  0.9147285470825965
  0.3048095581711340  0.9291210084347881  0.5852714529174035
  0.6951904418288661  0.0708789915652119  0.4147285470825965
  0.3048095581711340  0.0708789915652119  0.4147285470825965
  0.6951904418288661  0.9291210084347881  0.5852714529174035
  0.6951904418288661  0.4291210084347881  0.9147285470825965
  0.3048095581711340  0.5708789915652119  0.0852714529174106
  0.1951904418288661  0.0708789915652119  0.0852714529174106
  0.8048095581711339  0.9291210084347881  0.9147285470825965
  0.8048095581711339  0.4291210084347881  0.5852714529174035
  0.1951904418288661  0.5708789915652119  0.4147285470825965
  0.8048095581711339  0.5708789915652119  0.4147285470825965
  0.1951904418288661  0.4291210084347881  0.5852714529174035
  0.1951904418288661  0.9291210084347881  0.9147285470825965
  0.8048095581711339  0.0708789915652119  0.0852714529174106
  0.0000000000000000  0.6040376030908777  0.1583463627155962
  0.0000000000000000  0.3959623969091223  0.8416536072844013
  0.0000000000000000  0.8959623969091223  0.6583463927155987
  0.0000000000000000  0.1040376030908777  0.3416536372844038
  0.5000000000000000  0.1040376030908777  0.1583463627155962
  0.5000000000000000  0.8959623969091223  0.8416536072844013
  0.5000000000000000  0.3959623969091223  0.6583463927155987
  0.5000000000000000  0.6040376030908777  0.3416536372844038
  0.0000000000000000  0.2642314893080493  0.6636143879680856
  0.0000000000000000  0.7357685106919507  0.3363856120319145
  0.0000000000000000  0.2357685106919507  0.1636143879680855
  0.0000000000000000  0.7642314893080493  0.8363856120319144
  0.5000000000000000  0.7642314893080493  0.6636143879680856
  0.5000000000000000  0.2357685106919507  0.3363856120319145
  0.5000000000000000  0.7357685106919507  0.1636143879680855
  0.5000000000000000  0.2642314893080493  0.8363856120319144
  0.0000000000000000  0.2328124523496564  0.2992913907894676
  0.0000000000000000  0.7671875476503436  0.7007085942105347
  0.0000000000000000  0.2671875476503435  0.7992914057894653
  0.0000000000000000  0.7328124523496564  0.2007085942105347
  0.5000000000000000  0.7328124523496564  0.2992913907894676
  0.5000000000000000  0.2671875476503435  0.7007085942105347
  0.5000000000000000  0.7671875476503436  0.7992914057894653
  0.5000000000000000  0.2328124523496564  0.2007085942105347
  0.7498487570404810  0.5000000000000000  0.0000000000000000
  0.2501512429595190  0.5000000000000000  0.0000000000000000
  0.2501512429595190  0.0000000000000000  0.5000000000000000
  0.7498487570404810 -0.0000000000000000  0.5000000000000000
  0.2498487570404810  0.0000000000000000  0.0000000000000000
  0.7501512429595190 -0.0000000000000000  0.0000000000000000
  0.7501512429595190  0.5000000000000000  0.5000000000000000
  0.2498487570404810  0.5000000000000000  0.5000000000000000
 
  0.00000000E+00  0.00000000E+00  0.00000000E+00
  0.00000000E+00  0.00000000E+00  0.00000000E+00
  0.00000000E+00  0.00000000E+00  0.00000000E+00
  0.00000000E+00  0.00000000E+00  0.00000000E+00
  0.00000000E+00  0.00000000E+00  0.00000000E+00
  0.00000000E+00  0.00000000E+00  0.00000000E+00
  0.00000000E+00  0.00000000E+00  0.00000000E+00
  0.00000000E+00  0.00000000E+00  0.00000000E+00
  0.00000000E+00  0.00000000E+00  0.00000000E+00
  0.00000000E+00  0.00000000E+00  0.00000000E+00
  0.00000000E+00  0.00000000E+00  0.00000000E+00
  0.00000000E+00  0.00000000E+00  0.00000000E+00
  0.00000000E+00  0.00000000E+00  0.00000000E+00
  0.00000000E+00  0.00000000E+00  0.00000000E+00
  0.00000000E+00  0.00000000E+00  0.00000000E+00
  0.00000000E+00  0.00000000E+00  0.00000000E+00
  0.00000000E+00  0.00000000E+00  0.00000000E+00
  0.00000000E+00  0.00000000E+00  0.00000000E+00
  0.00000000E+00  0.00000000E+00  0.00000000E+00
  0.00000000E+00  0.00000000E+00  0.00000000E+00
  0.00000000E+00  0.00000000E+00  0.00000000E+00
  0.00000000E+00  0.00000000E+00  0.00000000E+00
  0.00000000E+00  0.00000000E+00  0.00000000E+00
  0.00000000E+00  0.00000000E+00  0.00000000E+00
  0.00000000E+00  0.00000000E+00  0.00000000E+00
  0.00000000E+00  0.00000000E+00  0.00000000E+00
  0.00000000E+00  0.00000000E+00  0.00000000E+00
  0.00000000E+00  0.00000000E+00  0.00000000E+00
  0.00000000E+00  0.00000000E+00  0.00000000E+00
  0.00000000E+00  0.00000000E+00  0.00000000E+00
  0.00000000E+00  0.00000000E+00  0.00000000E+00
  0.00000000E+00  0.00000000E+00  0.00000000E+00
  0.00000000E+00  0.00000000E+00  0.00000000E+00
  0.00000000E+00  0.00000000E+00  0.00000000E+00
  0.00000000E+00  0.00000000E+00  0.00000000E+00
  0.00000000E+00  0.00000000E+00  0.00000000E+00
  0.00000000E+00  0.00000000E+00  0.00000000E+00
  0.00000000E+00  0.00000000E+00  0.00000000E+00
  0.00000000E+00  0.00000000E+00  0.00000000E+00
  0.00000000E+00  0.00000000E+00  0.00000000E+00
  0.00000000E+00  0.00000000E+00  0.00000000E+00
  0.00000000E+00  0.00000000E+00  0.00000000E+00
  0.00000000E+00  0.00000000E+00  0.00000000E+00
  0.00000000E+00  0.00000000E+00  0.00000000E+00
  0.00000000E+00  0.00000000E+00  0.00000000E+00
  0.00000000E+00  0.00000000E+00  0.00000000E+00
  0.00000000E+00  0.00000000E+00  0.00000000E+00
  0.00000000E+00  0.00000000E+00  0.00000000E+00
  0.00000000E+00  0.00000000E+00  0.00000000E+00
  0.00000000E+00  0.00000000E+00  0.00000000E+00
  0.00000000E+00  0.00000000E+00  0.00000000E+00
  0.00000000E+00  0.00000000E+00  0.00000000E+00
  0.00000000E+00  0.00000000E+00  0.00000000E+00
  0.00000000E+00  0.00000000E+00  0.00000000E+00
  0.00000000E+00  0.00000000E+00  0.00000000E+00
  0.00000000E+00  0.00000000E+00  0.00000000E+00
  0.00000000E+00  0.00000000E+00  0.00000000E+00
  0.00000000E+00  0.00000000E+00  0.00000000E+00
  0.00000000E+00  0.00000000E+00  0.00000000E+00
  0.00000000E+00  0.00000000E+00  0.00000000E+00
  0.00000000E+00  0.00000000E+00  0.00000000E+00
  0.00000000E+00  0.00000000E+00  0.00000000E+00
  0.00000000E+00  0.00000000E+00  0.00000000E+00
  0.00000000E+00  0.00000000E+00  0.00000000E+00
  0.00000000E+00  0.00000000E+00  0.00000000E+00
  0.00000000E+00  0.00000000E+00  0.00000000E+00
  0.00000000E+00  0.00000000E+00  0.00000000E+00
  0.00000000E+00  0.00000000E+00  0.00000000E+00
  0.00000000E+00  0.00000000E+00  0.00000000E+00
  0.00000000E+00  0.00000000E+00  0.00000000E+00
  0.00000000E+00  0.00000000E+00  0.00000000E+00
  0.00000000E+00  0.00000000E+00  0.00000000E+00
  0.00000000E+00  0.00000000E+00  0.00000000E+00
  0.00000000E+00  0.00000000E+00  0.00000000E+00
  0.00000000E+00  0.00000000E+00  0.00000000E+00
  0.00000000E+00  0.00000000E+00  0.00000000E+00
  0.00000000E+00  0.00000000E+00  0.00000000E+00
  0.00000000E+00  0.00000000E+00  0.00000000E+00
  0.00000000E+00  0.00000000E+00  0.00000000E+00
  0.00000000E+00  0.00000000E+00  0.00000000E+00
