methane                                 
  0.986484830000000     
     6.3499999045999997    0.0000000000000000    0.0000000000000000
     0.0000000000000000    6.3499999045999997    0.0000000000000000
     0.0000000000000000    0.0000000000000000    6.3499999045999997
   H    C 
    16     4
Direct
  0.4447707773982720  0.7984408789437607  0.5589925236500639
  0.4335427896979412  0.0570882346678555  0.2953030462343730
  0.4422744134381564  0.1417883798623181  0.6369853951771455
  0.7377742916204426  0.9961934575514575  0.4959412954236208
  0.6330632506721736  0.5357550095186865  0.2018081705004053
  0.5609839103092553  0.6794124566049274  0.8533201847935271
  0.5865137542334590  0.3077778946531223  0.9031793671506101
  0.2914836853100507  0.4938612634085104  0.0361848769021999
  0.1111724314789728  0.0220647996001464  0.2064666468925831
  0.0491712532180726  0.1603612173796636  0.8610184185875320
  0.0676944798241301  0.7981092847369113  0.9087775039673385
  0.7699123236874462  0.9733861626132929  0.0531622629096098
  0.0991411687333352  0.5499867411172784  0.7130698923931361
  0.0420213873555946  0.6824405863674244  0.3711691043324719
  0.0612046217085861  0.3076759743711293  0.4166062136100332
  0.7667081275082155  0.4922749755128105  0.5559867145697192
  0.5159388419314763  0.9986943634428186  0.4974682847029726
  0.5158737637408267  0.5040932934609109  0.0043765858012501
  0.9991682157373606  0.9902995268574228  0.0025084195511529
  0.9917965043962388  0.5078556193295406  0.5123850428502519
 
  0.00000000E+00  0.00000000E+00  0.00000000E+00
  0.00000000E+00  0.00000000E+00  0.00000000E+00
  0.00000000E+00  0.00000000E+00  0.00000000E+00
  0.00000000E+00  0.00000000E+00  0.00000000E+00
  0.00000000E+00  0.00000000E+00  0.00000000E+00
  0.00000000E+00  0.00000000E+00  0.00000000E+00
  0.00000000E+00  0.00000000E+00  0.00000000E+00
  0.00000000E+00  0.00000000E+00  0.00000000E+00
  0.00000000E+00  0.00000000E+00  0.00000000E+00
  0.00000000E+00  0.00000000E+00  0.00000000E+00
  0.00000000E+00  0.00000000E+00  0.00000000E+00
  0.00000000E+00  0.00000000E+00  0.00000000E+00
  0.00000000E+00  0.00000000E+00  0.00000000E+00
  0.00000000E+00  0.00000000E+00  0.00000000E+00
  0.00000000E+00  0.00000000E+00  0.00000000E+00
  0.00000000E+00  0.00000000E+00  0.00000000E+00
  0.00000000E+00  0.00000000E+00  0.00000000E+00
  0.00000000E+00  0.00000000E+00  0.00000000E+00
  0.00000000E+00  0.00000000E+00  0.00000000E+00
  0.00000000E+00  0.00000000E+00  0.00000000E+00
