methane-1                               
  0.986484830000000     
     6.3499999045999997    0.0000000000000000    0.0000000000000000
     0.0000000000000000    6.3499999045999997    0.0000000000000000
     0.0000000000000000    0.0000000000000000    6.3499999045999997
   H    C 
    16     4
Direct
  0.6653590738432871  0.5566422775765356  0.2884875376496812
  0.5919758657138481  0.7454135985334369  0.7961239972016765
  0.6232619685447626  0.2415577607089845  0.8715013121228706
  0.2114213093504161  0.4987648881053328  0.0570874594828720
  0.9284992088153781  0.1844900882845424  0.2179894165724659
  0.9096112409885245  0.1299170450750026  0.7404926194977748
  0.3004243120491199  0.9071805711017406 -0.0008907586967814
  0.8306176695759308  0.7409713130562007  0.0863331247797937
  0.1469107804080052  0.5425533038026775  0.7795914540212542
  0.0575511464759973  0.7361841982669878  0.3076680388963141
  0.0754426041416214  0.2500806695087111  0.3752050583468755
  0.6857560367284038  0.4818112231722010  0.5604766473734112
  0.6302511578467652  0.0398431277299030  0.7487175241465495
  0.5661116949382100  0.2269677472448152  0.2809274854028848
  0.5854883571372754  0.7478851214176074  0.3482259495200862
  0.1771500448651372  0.9763920279251441  0.5501117328166709
  0.5128159782771647  0.5017802695944011  0.0006823586089221
  0.0011720126901939  0.9927278196751664  0.0058902129320867
  0.9939441088288706  0.5068904097563814  0.5152467118684004
  0.4903455167810898  0.0010266214642245  0.4752120654562006
 
  0.00000000E+00  0.00000000E+00  0.00000000E+00
  0.00000000E+00  0.00000000E+00  0.00000000E+00
  0.00000000E+00  0.00000000E+00  0.00000000E+00
  0.00000000E+00  0.00000000E+00  0.00000000E+00
  0.00000000E+00  0.00000000E+00  0.00000000E+00
  0.00000000E+00  0.00000000E+00  0.00000000E+00
  0.00000000E+00  0.00000000E+00  0.00000000E+00
  0.00000000E+00  0.00000000E+00  0.00000000E+00
  0.00000000E+00  0.00000000E+00  0.00000000E+00
  0.00000000E+00  0.00000000E+00  0.00000000E+00
  0.00000000E+00  0.00000000E+00  0.00000000E+00
  0.00000000E+00  0.00000000E+00  0.00000000E+00
  0.00000000E+00  0.00000000E+00  0.00000000E+00
  0.00000000E+00  0.00000000E+00  0.00000000E+00
  0.00000000E+00  0.00000000E+00  0.00000000E+00
  0.00000000E+00  0.00000000E+00  0.00000000E+00
  0.00000000E+00  0.00000000E+00  0.00000000E+00
  0.00000000E+00  0.00000000E+00  0.00000000E+00
  0.00000000E+00  0.00000000E+00  0.00000000E+00
  0.00000000E+00  0.00000000E+00  0.00000000E+00
