methane-low                             
  0.986484830000000     
    11.7079000473000008    0.0000000000000000    0.0000000000000000
     0.0000000000000000    8.1892995834000004    0.0000000000000000
     0.0000000000000000    0.0000000000000000    8.1842002868999995
   H    C 
    64    16
Direct
  0.0773956646879879  0.7957773401285343  0.1540159093224013
  0.9226043573120066  0.2042226598714658  0.8459841196775975
  0.9226043573120066  0.7042226598714657  0.6540158803224025
  0.0773956646879879  0.2957773401285343  0.3459840906775987
  0.9226043573120066  0.2957773401285343  0.3459840906775987
  0.0773956646879879  0.7042226598714657  0.6540158803224025
  0.0773956646879879  0.2042226598714658  0.8459841196775975
  0.9226043573120066  0.7957773401285343  0.1540159093224013
  0.5773956426879934  0.2957773401285343  0.1540159093224013
  0.4226043283120080  0.7042226598714657  0.8459841196775975
  0.4226043283120080  0.2042226598714658  0.6540158803224025
  0.5773956426879934  0.7957773401285343  0.3459840906775987
  0.4226043283120081  0.7957773401285343  0.3459840906775987
  0.5773956426879934  0.2042226598714658  0.6540158803224025
  0.5773956426879934  0.7042226598714657  0.8459841196775975
  0.4226043283120080  0.2957773401285343  0.1540159093224013
  0.8046842943261855  0.5849048556484312  0.9291030313193147
  0.1953157056738144  0.4150951443515689  0.0708969686806851
  0.1953157056738144  0.9150951443515688  0.4291030313193148
  0.8046842943261855  0.0849048556484312  0.5708969686806853
  0.1953157056738144  0.0849048556484312  0.5708969686806853
  0.8046842943261855  0.9150951443515688  0.4291030313193149
  0.8046842943261855  0.4150951443515689  0.0708969686806851
  0.1953157056738144  0.5849048556484312  0.9291030313193147
  0.3046842943261854  0.0849048556484312  0.9291030313193147
  0.6953157056738145  0.9150951443515688  0.0708969686806851
  0.6953157056738145  0.4150951443515689  0.4291030313193148
  0.3046842943261854  0.5849048556484312  0.5708969686806853
  0.6953157056738145  0.5849048556484312  0.5708969686806853
  0.3046842943261854  0.4150951443515689  0.4291030313193148
  0.3046842943261854  0.9150951443515688  0.0708969686806851
  0.6953157056738145  0.0849048556484312  0.9291030313193147
  0.6951875753823511  0.5708697754606312  0.0852522532390303
  0.3048124246176492  0.4291302245393685  0.9147477467609698
  0.3048124246176492  0.9291302245393688  0.5852522532390302
  0.6951875753823511  0.0708697754606315  0.4147477467609698
  0.3048124246176492  0.0708697754606315  0.4147477467609698
  0.6951875753823511  0.9291302245393688  0.5852522532390302
  0.6951875753823511  0.4291302245393685  0.9147477467609698
  0.3048124246176492  0.5708697754606312  0.0852522532390303
  0.1951875753823508  0.0708697754606315  0.0852522532390303
  0.8048124246176489  0.9291302245393688  0.9147477467609698
  0.8048124246176489  0.4291302245393685  0.5852522532390302
  0.1951875753823508  0.5708697754606312  0.4147477467609698
  0.8048124246176489  0.5708697754606312  0.4147477467609698
  0.1951875753823508  0.4291302245393685  0.5852522532390302
  0.1951875753823508  0.9291302245393688  0.9147477467609698
  0.8048124246176489  0.0708697754606315  0.0852522532390303
  0.0000000000000000  0.6040174539771267  0.1582999998708438
  0.0000000000000000  0.3959825460228730  0.8416999701291535
  0.0000000000000000  0.8959825460228733  0.6583000298708465
  0.0000000000000000  0.1040174539771269  0.3417000001291560
  0.5000000000000000  0.1040174539771270  0.1582999998708438
  0.5000000000000000  0.8959825460228733  0.8416999701291535
  0.5000000000000000  0.3959825460228730  0.6583000298708465
  0.5000000000000000  0.6040174539771267  0.3417000001291560
  0.0000000000000000  0.2642180647464413  0.6636069327627891
  0.0000000000000000  0.7357819352535586 -0.6636069327627891
  0.0000000000000000  0.2357819352535588  0.1636069327627891
  0.0000000000000000 -0.2357819352535587 -0.1636069327627890
  0.5000000000000000 -0.2357819352535587  0.6636069327627894
  0.5000000000000000  0.2357819352535588 -0.6636069327627891
  0.5000000000000000  0.7357819352535586  0.1636069327627891
  0.5000000000000000  0.2642180647464413 -0.1636069327627891
  0.0000000000000000  0.2328751673522767 -0.7006609752597854
  0.0000000000000000  0.7671248326477232  0.7006609602597877
  0.0000000000000000  0.2671248326477232 -0.2006609602597877
  0.0000000000000000 -0.2671248326477232  0.2006609602597877
  0.5000000000000000 -0.2671248326477233 -0.7006609752597854
  0.5000000000000000  0.2671248326477232  0.7006609602597877
  0.5000000000000000  0.7671248326477232 -0.2006609602597877
  0.5000000000000000  0.2328751673522768  0.2006609602597877
  0.7498475074878056  0.5000000000000000 -0.0000000000000000
  0.2501524925121946  0.5000000000000000 -0.0000000000000000
  0.2501524925121946  0.0000000000000000  0.5000000000000000
  0.7498475074878056  0.0000000000000000  0.5000000000000000
  0.2498475074878054  0.0000000000000000 -0.0000000000000000
  0.7501524925121944  0.0000000000000000 -0.0000000000000000
  0.7501524925121944  0.5000000000000000  0.5000000000000000
  0.2498475074878054  0.5000000000000000  0.5000000000000000
 
  0.00000000E+00  0.00000000E+00  0.00000000E+00
  0.00000000E+00  0.00000000E+00  0.00000000E+00
  0.00000000E+00  0.00000000E+00  0.00000000E+00
  0.00000000E+00  0.00000000E+00  0.00000000E+00
  0.00000000E+00  0.00000000E+00  0.00000000E+00
  0.00000000E+00  0.00000000E+00  0.00000000E+00
  0.00000000E+00  0.00000000E+00  0.00000000E+00
  0.00000000E+00  0.00000000E+00  0.00000000E+00
  0.00000000E+00  0.00000000E+00  0.00000000E+00
  0.00000000E+00  0.00000000E+00  0.00000000E+00
  0.00000000E+00  0.00000000E+00  0.00000000E+00
  0.00000000E+00  0.00000000E+00  0.00000000E+00
  0.00000000E+00  0.00000000E+00  0.00000000E+00
  0.00000000E+00  0.00000000E+00  0.00000000E+00
  0.00000000E+00  0.00000000E+00  0.00000000E+00
  0.00000000E+00  0.00000000E+00  0.00000000E+00
  0.00000000E+00  0.00000000E+00  0.00000000E+00
  0.00000000E+00  0.00000000E+00  0.00000000E+00
  0.00000000E+00  0.00000000E+00  0.00000000E+00
  0.00000000E+00  0.00000000E+00  0.00000000E+00
  0.00000000E+00  0.00000000E+00  0.00000000E+00
  0.00000000E+00  0.00000000E+00  0.00000000E+00
  0.00000000E+00  0.00000000E+00  0.00000000E+00
  0.00000000E+00  0.00000000E+00  0.00000000E+00
  0.00000000E+00  0.00000000E+00  0.00000000E+00
  0.00000000E+00  0.00000000E+00  0.00000000E+00
  0.00000000E+00  0.00000000E+00  0.00000000E+00
  0.00000000E+00  0.00000000E+00  0.00000000E+00
  0.00000000E+00  0.00000000E+00  0.00000000E+00
  0.00000000E+00  0.00000000E+00  0.00000000E+00
  0.00000000E+00  0.00000000E+00  0.00000000E+00
  0.00000000E+00  0.00000000E+00  0.00000000E+00
  0.00000000E+00  0.00000000E+00  0.00000000E+00
  0.00000000E+00  0.00000000E+00  0.00000000E+00
  0.00000000E+00  0.00000000E+00  0.00000000E+00
  0.00000000E+00  0.00000000E+00  0.00000000E+00
  0.00000000E+00  0.00000000E+00  0.00000000E+00
  0.00000000E+00  0.00000000E+00  0.00000000E+00
  0.00000000E+00  0.00000000E+00  0.00000000E+00
  0.00000000E+00  0.00000000E+00  0.00000000E+00
  0.00000000E+00  0.00000000E+00  0.00000000E+00
  0.00000000E+00  0.00000000E+00  0.00000000E+00
  0.00000000E+00  0.00000000E+00  0.00000000E+00
  0.00000000E+00  0.00000000E+00  0.00000000E+00
  0.00000000E+00  0.00000000E+00  0.00000000E+00
  0.00000000E+00  0.00000000E+00  0.00000000E+00
  0.00000000E+00  0.00000000E+00  0.00000000E+00
  0.00000000E+00  0.00000000E+00  0.00000000E+00
  0.00000000E+00  0.00000000E+00  0.00000000E+00
  0.00000000E+00  0.00000000E+00  0.00000000E+00
  0.00000000E+00  0.00000000E+00  0.00000000E+00
  0.00000000E+00  0.00000000E+00  0.00000000E+00
  0.00000000E+00  0.00000000E+00  0.00000000E+00
  0.00000000E+00  0.00000000E+00  0.00000000E+00
  0.00000000E+00  0.00000000E+00  0.00000000E+00
  0.00000000E+00  0.00000000E+00  0.00000000E+00
  0.00000000E+00  0.00000000E+00  0.00000000E+00
  0.00000000E+00  0.00000000E+00  0.00000000E+00
  0.00000000E+00  0.00000000E+00  0.00000000E+00
  0.00000000E+00  0.00000000E+00  0.00000000E+00
  0.00000000E+00  0.00000000E+00  0.00000000E+00
  0.00000000E+00  0.00000000E+00  0.00000000E+00
  0.00000000E+00  0.00000000E+00  0.00000000E+00
  0.00000000E+00  0.00000000E+00  0.00000000E+00
  0.00000000E+00  0.00000000E+00  0.00000000E+00
  0.00000000E+00  0.00000000E+00  0.00000000E+00
  0.00000000E+00  0.00000000E+00  0.00000000E+00
  0.00000000E+00  0.00000000E+00  0.00000000E+00
  0.00000000E+00  0.00000000E+00  0.00000000E+00
  0.00000000E+00  0.00000000E+00  0.00000000E+00
  0.00000000E+00  0.00000000E+00  0.00000000E+00
  0.00000000E+00  0.00000000E+00  0.00000000E+00
  0.00000000E+00  0.00000000E+00  0.00000000E+00
  0.00000000E+00  0.00000000E+00  0.00000000E+00
  0.00000000E+00  0.00000000E+00  0.00000000E+00
  0.00000000E+00  0.00000000E+00  0.00000000E+00
  0.00000000E+00  0.00000000E+00  0.00000000E+00
  0.00000000E+00  0.00000000E+00  0.00000000E+00
  0.00000000E+00  0.00000000E+00  0.00000000E+00
  0.00000000E+00  0.00000000E+00  0.00000000E+00
