C6 H6                                   
  0.879365934000000     
     7.3550000000000004    0.0000000000000000    0.0000000000000000
     0.0000000000000000    9.3710000000000004    0.0000000000000000
     0.0000000000000000    0.0000000000000000    6.7000000000000002
   C    H 
    24    24
Direct
  0.9321016590752530  0.1598490482056946  0.0087151608625745
  0.0678983219247490  0.8401509517943057 -0.0087151348625724
  0.5678983409247470  0.8401509517943055  0.5087151318625691
  0.4321016890752484  0.1598490482056946  0.4912848391374255
  0.0678983219247490  0.6598490482056945  0.4912848391374255
  0.9321016590752530  0.3401509517943052  0.5087151318625691
  0.4321016890752484  0.3401509517943052 -0.0087151348625724
  0.5678983409247470  0.6598490482056945  0.0087151608625745
  0.0888124884317756  0.1068897223732257  0.1506225778326716
  0.9111875265682223  0.8931102546267760  0.8493773921673262
  0.4111875265682218  0.8931102546267760  0.6506226078326738
  0.5888124734317778  0.1068897223732257  0.3493774221673285
  0.9111875265682222  0.6068897453732240  0.3493774221673285
  0.0888124884317756  0.3931102846267784  0.6506226078326738
  0.5888124734317777  0.3931102846267784  0.8493773921673262
  0.4111875265682218  0.6068897453732240  0.1506225778326716
  0.8405383606241340  0.0517156527166991  0.8589133331928531
  0.1594616393758656  0.9482843252832995  0.1410866668071470
  0.6594616393758660  0.9482843252832995  0.3589133331928528
  0.3405383606241345  0.0517156527166991  0.6410866668071468
  0.1594616393758656  0.5517156747167005  0.6410866668071468
  0.8405383606241340  0.4482843542832979  0.3589133331928528
  0.3405383606241345  0.4482843542832979  0.1410866668071470
  0.6594616393758660  0.5517156747167005  0.8589133331928531
  0.8826568197299739  0.2854647562439504  0.0158351074329582
  0.1173431652700287  0.7145352577560438 -0.0158350784329595
  0.6173431802700261  0.7145352577560438  0.5158350784329592
  0.3826568197299735  0.2854647562439503  0.4841648925670416
  0.1173431652700287  0.7854647422439562  0.4841648925670416
  0.8826568197299739  0.2145352577560438  0.5158350784329592
  0.3826568197299735  0.2145352577560438 -0.0158350784329595
  0.6173431802700261  0.7854647422439562  0.0158351074329582
  0.1573010329918520  0.1894458358057697  0.2710421512070451
  0.8426989530081466  0.8105541491942253  0.7289578337929574
  0.3426989530081468  0.8105541491942253  0.7710421662070426
  0.6573010469918533  0.1894458358057697  0.2289578337929572
  0.8426989530081466  0.6894458508057747  0.2289578337929572
  0.1573010329918520  0.3105541491942255  0.7710421662070426
  0.6573010469918534  0.3105541491942255  0.7289578337929574
  0.3426989530081467  0.6894458508057747  0.2710421512070451
  0.7121855100392800  0.0874688995101496  0.7521717484550450
  0.2878144749607219  0.9125311154898552  0.2478282665449527
  0.7878144899607200  0.9125311154898552  0.2521717484550450
  0.2121855100392802  0.0874688995101496  0.7478282515449549
  0.2878144749607219  0.5874688845101448  0.7478282515449550
  0.7121855100392800  0.4125311154898552  0.2521717484550450
  0.2121855100392802  0.4125311154898552  0.2478282665449526
  0.7878144899607200  0.5874688845101448  0.7521717484550450
 
  0.00000000E+00  0.00000000E+00  0.00000000E+00
  0.00000000E+00  0.00000000E+00  0.00000000E+00
  0.00000000E+00  0.00000000E+00  0.00000000E+00
  0.00000000E+00  0.00000000E+00  0.00000000E+00
  0.00000000E+00  0.00000000E+00  0.00000000E+00
  0.00000000E+00  0.00000000E+00  0.00000000E+00
  0.00000000E+00  0.00000000E+00  0.00000000E+00
  0.00000000E+00  0.00000000E+00  0.00000000E+00
  0.00000000E+00  0.00000000E+00  0.00000000E+00
  0.00000000E+00  0.00000000E+00  0.00000000E+00
  0.00000000E+00  0.00000000E+00  0.00000000E+00
  0.00000000E+00  0.00000000E+00  0.00000000E+00
  0.00000000E+00  0.00000000E+00  0.00000000E+00
  0.00000000E+00  0.00000000E+00  0.00000000E+00
  0.00000000E+00  0.00000000E+00  0.00000000E+00
  0.00000000E+00  0.00000000E+00  0.00000000E+00
  0.00000000E+00  0.00000000E+00  0.00000000E+00
  0.00000000E+00  0.00000000E+00  0.00000000E+00
  0.00000000E+00  0.00000000E+00  0.00000000E+00
  0.00000000E+00  0.00000000E+00  0.00000000E+00
  0.00000000E+00  0.00000000E+00  0.00000000E+00
  0.00000000E+00  0.00000000E+00  0.00000000E+00
  0.00000000E+00  0.00000000E+00  0.00000000E+00
  0.00000000E+00  0.00000000E+00  0.00000000E+00
  0.00000000E+00  0.00000000E+00  0.00000000E+00
  0.00000000E+00  0.00000000E+00  0.00000000E+00
  0.00000000E+00  0.00000000E+00  0.00000000E+00
  0.00000000E+00  0.00000000E+00  0.00000000E+00
  0.00000000E+00  0.00000000E+00  0.00000000E+00
  0.00000000E+00  0.00000000E+00  0.00000000E+00
  0.00000000E+00  0.00000000E+00  0.00000000E+00
  0.00000000E+00  0.00000000E+00  0.00000000E+00
  0.00000000E+00  0.00000000E+00  0.00000000E+00
  0.00000000E+00  0.00000000E+00  0.00000000E+00
  0.00000000E+00  0.00000000E+00  0.00000000E+00
  0.00000000E+00  0.00000000E+00  0.00000000E+00
  0.00000000E+00  0.00000000E+00  0.00000000E+00
  0.00000000E+00  0.00000000E+00  0.00000000E+00
  0.00000000E+00  0.00000000E+00  0.00000000E+00
  0.00000000E+00  0.00000000E+00  0.00000000E+00
  0.00000000E+00  0.00000000E+00  0.00000000E+00
  0.00000000E+00  0.00000000E+00  0.00000000E+00
  0.00000000E+00  0.00000000E+00  0.00000000E+00
  0.00000000E+00  0.00000000E+00  0.00000000E+00
  0.00000000E+00  0.00000000E+00  0.00000000E+00
  0.00000000E+00  0.00000000E+00  0.00000000E+00
  0.00000000E+00  0.00000000E+00  0.00000000E+00
  0.00000000E+00  0.00000000E+00  0.00000000E+00
