C6 H6                                   
  0.972588826000000     
     7.3550000000000004    0.0000000000000000    0.0000000000000000
     0.0000000000000000    9.3710000000000004    0.0000000000000000
     0.0000000000000000    0.0000000000000000    6.7000000000000002
   C    H 
    24    24
Direct
  0.9415988222482252  0.1462896634234989  0.0042933308211062
  0.0584011587517767  0.8537103365765008 -0.0042933048211039
  0.5584011777517748  0.8537103365765008  0.5042933018211003
  0.4415988522482206  0.1462896634234989  0.4957066691788941
  0.0584011587517767  0.6462896634234992  0.4957066691788941
  0.9415988222482252  0.3537103365765010  0.5042933018211003
  0.4415988522482206  0.3537103365765010 -0.0042933048211039
  0.5584011777517748  0.6462896634234992  0.0042933308211062
  0.0808445513880562  0.0978325406271540  0.1383555115888041
  0.9191554636119418  0.9021674363728478  0.8616444584111935
  0.4191554636119412  0.9021674363728478  0.6383555415888065
  0.5808445363880582  0.0978325406271540  0.3616444884111959
  0.9191554636119418  0.5978325636271522  0.3616444884111959
  0.0808445513880562  0.4021674663728501  0.6383555415888065
  0.5808445363880582  0.4021674663728501  0.8616444584111935
  0.4191554636119412  0.5978325636271522  0.1383555115888041
  0.8601790797965911  0.0482078568302428  0.8658498839335007
  0.1398209202034090  0.9517921211697553  0.1341501160664994
  0.6398209202034089  0.9517921211697553  0.3658498839335006
  0.3601790797965908  0.0482078568302428  0.6341501160664993
  0.1398209202034090  0.5482078788302447  0.6341501160664993
  0.8601790797965911  0.4517921501697545  0.3658498839335007
  0.3601790797965908  0.4517921501697545  0.1341501160664994
  0.6398209202034089  0.5482078788302447  0.8658498839335007
  0.8967200887895369  0.2605490123823541  0.0079083638040998
  0.1032798962104652  0.7394510016176405 -0.0079083348041010
  0.6032799112104631  0.7394510016176405  0.5079083348041008
  0.3967200887895372  0.2605490123823541  0.4920916361959004
  0.1032798962104652  0.7605489983823595  0.4920916361959004
  0.8967200887895369  0.2394510016176401  0.5079083348041008
  0.3967200887895373  0.2394510016176401 -0.0079083348041010
  0.6032799112104631  0.7605489983823595  0.0079083638040998
  0.1433950441057728  0.1735889167551431  0.2476251696592953
  0.8566049418942261  0.8264110682448521  0.7523748153407073
  0.3566049418942260  0.8264110682448521  0.7476251846592927
  0.6433950581057739  0.1735889167551431  0.2523748153407070
  0.8566049418942261  0.6735889317551479  0.2523748153407070
  0.1433950441057728  0.3264110682448520  0.7476251846592927
  0.6433950581057739  0.3264110682448520  0.7523748153407073
  0.3566049418942260  0.6735889317551479  0.2476251696592953
  0.7503284208806437  0.0842149237074868  0.7614272662567328
  0.2496715641193584  0.9157850912925179  0.2385727487432649
  0.7496715791193562  0.9157850912925179  0.2614272662567328
  0.2503284208806439  0.0842149237074868  0.7385727337432672
  0.2496715641193584  0.5842149087074821  0.7385727337432672
  0.7503284208806437  0.4157850912925181  0.2614272662567328
  0.2503284208806439  0.4157850912925181  0.2385727487432649
  0.7496715791193563  0.5842149087074821  0.7614272662567328
 
  0.00000000E+00  0.00000000E+00  0.00000000E+00
  0.00000000E+00  0.00000000E+00  0.00000000E+00
  0.00000000E+00  0.00000000E+00  0.00000000E+00
  0.00000000E+00  0.00000000E+00  0.00000000E+00
  0.00000000E+00  0.00000000E+00  0.00000000E+00
  0.00000000E+00  0.00000000E+00  0.00000000E+00
  0.00000000E+00  0.00000000E+00  0.00000000E+00
  0.00000000E+00  0.00000000E+00  0.00000000E+00
  0.00000000E+00  0.00000000E+00  0.00000000E+00
  0.00000000E+00  0.00000000E+00  0.00000000E+00
  0.00000000E+00  0.00000000E+00  0.00000000E+00
  0.00000000E+00  0.00000000E+00  0.00000000E+00
  0.00000000E+00  0.00000000E+00  0.00000000E+00
  0.00000000E+00  0.00000000E+00  0.00000000E+00
  0.00000000E+00  0.00000000E+00  0.00000000E+00
  0.00000000E+00  0.00000000E+00  0.00000000E+00
  0.00000000E+00  0.00000000E+00  0.00000000E+00
  0.00000000E+00  0.00000000E+00  0.00000000E+00
  0.00000000E+00  0.00000000E+00  0.00000000E+00
  0.00000000E+00  0.00000000E+00  0.00000000E+00
  0.00000000E+00  0.00000000E+00  0.00000000E+00
  0.00000000E+00  0.00000000E+00  0.00000000E+00
  0.00000000E+00  0.00000000E+00  0.00000000E+00
  0.00000000E+00  0.00000000E+00  0.00000000E+00
  0.00000000E+00  0.00000000E+00  0.00000000E+00
  0.00000000E+00  0.00000000E+00  0.00000000E+00
  0.00000000E+00  0.00000000E+00  0.00000000E+00
  0.00000000E+00  0.00000000E+00  0.00000000E+00
  0.00000000E+00  0.00000000E+00  0.00000000E+00
  0.00000000E+00  0.00000000E+00  0.00000000E+00
  0.00000000E+00  0.00000000E+00  0.00000000E+00
  0.00000000E+00  0.00000000E+00  0.00000000E+00
  0.00000000E+00  0.00000000E+00  0.00000000E+00
  0.00000000E+00  0.00000000E+00  0.00000000E+00
  0.00000000E+00  0.00000000E+00  0.00000000E+00
  0.00000000E+00  0.00000000E+00  0.00000000E+00
  0.00000000E+00  0.00000000E+00  0.00000000E+00
  0.00000000E+00  0.00000000E+00  0.00000000E+00
  0.00000000E+00  0.00000000E+00  0.00000000E+00
  0.00000000E+00  0.00000000E+00  0.00000000E+00
  0.00000000E+00  0.00000000E+00  0.00000000E+00
  0.00000000E+00  0.00000000E+00  0.00000000E+00
  0.00000000E+00  0.00000000E+00  0.00000000E+00
  0.00000000E+00  0.00000000E+00  0.00000000E+00
  0.00000000E+00  0.00000000E+00  0.00000000E+00
  0.00000000E+00  0.00000000E+00  0.00000000E+00
  0.00000000E+00  0.00000000E+00  0.00000000E+00
  0.00000000E+00  0.00000000E+00  0.00000000E+00
