C2 H4                                   
  0.979586109000000     
     4.8699998856000004    0.0000000000000000    0.0000000000000000
     0.0000000000000000    6.4600000380999996    0.0000000000000000
     0.0000000000000000    0.0000000000000000    4.1400000953999996
   C    H 
     4     8
Direct
  0.8846569104099113  0.0549657973787784  0.9634711520373974
  0.1153431045900936  0.9450341876212168  0.0365288219626005
  0.6153430895900887  0.5549658123787832  0.5365288479626026
  0.3846569104099112  0.4450341876212168  0.4634711820373998
  0.8041559944101773  0.1786164036456856  0.1259543678390620
  0.1958439905898179  0.8213836103543157  0.8740456401609387
  0.6958440055898227  0.6786163896456843  0.3740456401609387
  0.3041559944101772  0.3213836103543156  0.6259543598390613
  0.7660837056652844  0.0262564612985863  0.7380137388295412
  0.2339162643347132  0.9737435447014142  0.2619862311704563
  0.7339162943347156  0.5262564552985858  0.7619862611704588
  0.2660837356652867  0.4737435447014143  0.2380137688295437
 
  0.00000000E+00  0.00000000E+00  0.00000000E+00
  0.00000000E+00  0.00000000E+00  0.00000000E+00
  0.00000000E+00  0.00000000E+00  0.00000000E+00
  0.00000000E+00  0.00000000E+00  0.00000000E+00
  0.00000000E+00  0.00000000E+00  0.00000000E+00
  0.00000000E+00  0.00000000E+00  0.00000000E+00
  0.00000000E+00  0.00000000E+00  0.00000000E+00
  0.00000000E+00  0.00000000E+00  0.00000000E+00
  0.00000000E+00  0.00000000E+00  0.00000000E+00
  0.00000000E+00  0.00000000E+00  0.00000000E+00
  0.00000000E+00  0.00000000E+00  0.00000000E+00
  0.00000000E+00  0.00000000E+00  0.00000000E+00
