C2 H4                                   
  0.979586109000000     
     4.8699998856000004    0.0000000000000000    0.0000000000000000
     0.0000000000000000    6.4600000380999996    0.0000000000000000
     0.0000000000000000    0.0000000000000000    4.1400000953999996
   C    H 
     4     8
Direct
  0.8847329765477659  0.0550230756619074  0.9637070716907554
  0.1152670384522390  0.9449769093380878  0.0362929023092424
  0.6152670234522341  0.5550230906619122  0.5362929283092446
  0.3847329765477659  0.4449769093380878  0.4637071016907580
  0.8041570599966725  0.1785949854552041  0.1259380045962286
  0.1958429250033228  0.8214050285447970  0.8740620034037720
  0.6958429400033275  0.6785949714552030  0.3740620034037720
  0.3041570599966724  0.3214050285447971  0.6259379965962280
  0.7661670930854207  0.0262065248624957  0.7380246830971737
  0.2338328769145767  0.9737934811375049  0.2619752869028237
  0.7338329069145793  0.5262065188624951  0.7619753169028263
  0.2661671230854235  0.4737934811375049  0.2380247130971762
 
  0.00000000E+00  0.00000000E+00  0.00000000E+00
  0.00000000E+00  0.00000000E+00  0.00000000E+00
  0.00000000E+00  0.00000000E+00  0.00000000E+00
  0.00000000E+00  0.00000000E+00  0.00000000E+00
  0.00000000E+00  0.00000000E+00  0.00000000E+00
  0.00000000E+00  0.00000000E+00  0.00000000E+00
  0.00000000E+00  0.00000000E+00  0.00000000E+00
  0.00000000E+00  0.00000000E+00  0.00000000E+00
  0.00000000E+00  0.00000000E+00  0.00000000E+00
  0.00000000E+00  0.00000000E+00  0.00000000E+00
  0.00000000E+00  0.00000000E+00  0.00000000E+00
  0.00000000E+00  0.00000000E+00  0.00000000E+00
