C2 H4                                   
   1.01315940400000     
     4.8699998856000004    0.0000000000000000    0.0000000000000000
     0.0000000000000000    6.4600000380999996    0.0000000000000000
     0.0000000000000000    0.0000000000000000    4.1400000953999996
   C    H 
     4     8
Direct
  0.8885351730720954  0.0531695477943386  0.9647716356056091
  0.1114648419279095  0.9468304372056565  0.0352283383943887
  0.6114648269279046  0.5531695627943435  0.5352283643943909
  0.3885351730720953  0.4468304372056566  0.4647716656056116
  0.8108059786586002  0.1725478681531311  0.1218969268836296
  0.1891940063413950  0.8274521458468700  0.8781030811163711
  0.6891940213413998  0.6725478541531300  0.3781030811163710
  0.3108059786586002  0.3274521458468699  0.6218969188836289
  0.7741294306792798  0.0251736588736325  0.7464833954087510
  0.2258705393207178  0.9748263471263680  0.2535165745912465
  0.7258705693207202  0.5251736528736320  0.7535166045912490
  0.2741294606792822  0.4748263471263680  0.2464834254087534
 
  0.00000000E+00  0.00000000E+00  0.00000000E+00
  0.00000000E+00  0.00000000E+00  0.00000000E+00
  0.00000000E+00  0.00000000E+00  0.00000000E+00
  0.00000000E+00  0.00000000E+00  0.00000000E+00
  0.00000000E+00  0.00000000E+00  0.00000000E+00
  0.00000000E+00  0.00000000E+00  0.00000000E+00
  0.00000000E+00  0.00000000E+00  0.00000000E+00
  0.00000000E+00  0.00000000E+00  0.00000000E+00
  0.00000000E+00  0.00000000E+00  0.00000000E+00
  0.00000000E+00  0.00000000E+00  0.00000000E+00
  0.00000000E+00  0.00000000E+00  0.00000000E+00
  0.00000000E+00  0.00000000E+00  0.00000000E+00
