methane-high                            
   1.00000000000000     
    11.7079000473000008    0.0000000000000000    0.0000000000000000
     0.0000000000000000    8.1892995834000004    0.0000000000000000
     0.0000000000000000    0.0000000000000000    8.1842002868999995
   H    C 
    56    16
Direct
  0.8041568617084832  0.5839290100377361  0.9308411720728428
  0.1958431382915168  0.4160709899622636  0.0691588279271574
  0.1958431382915168  0.9160709899622639  0.4308411720728426
  0.8041568617084832  0.0839290100377364  0.5691588279271572
  0.1958431382915168  0.0839290100377364  0.5691588279271572
  0.8041568617084832  0.9160709899622639  0.4308411720728426
  0.8041568617084832  0.4160709899622636  0.0691588279271574
  0.1958431382915168  0.5839290100377362  0.9308411720728428
  0.3041568617084832  0.0839290100377364  0.9308411720728428
  0.6958431382915168  0.9160709899622639  0.0691588279271574
  0.6958431382915168  0.4160709899622636  0.4308411720728426
  0.3041568617084832  0.5839290100377361  0.5691588279271572
  0.6958431382915168  0.5839290100377361  0.5691588279271572
  0.3041568617084832  0.4160709899622636  0.4308411720728426
  0.3041568617084832  0.9160709899622638  0.0691588279271574
  0.6958431382915168  0.0839290100377364  0.9308411720728428
  0.6953786094700943  0.5702838138210184  0.0836098047760871
  0.3046213905299056  0.4297161861789816  0.9163901952239129
  0.3046213905299056  0.9297161861789816  0.5836098047760871
  0.6953786094700943  0.0702838138210184  0.4163901952239128
  0.3046213905299056  0.0702838138210184  0.4163901952239128
  0.6953786094700943  0.9297161861789816  0.5836098047760871
  0.6953786094700943  0.4297161861789816  0.9163901952239129
  0.3046213905299056  0.5702838138210184  0.0836098047760872
  0.1953786094700944  0.0702838138210184  0.0836098047760872
  0.8046213905299057  0.9297161861789816  0.9163901952239129
  0.8046213905299057  0.4297161861789816  0.5836098047760871
  0.1953786094700944  0.5702838138210184  0.4163901952239128
  0.8046213905299057  0.5702838138210184  0.4163901952239128
  0.1953786094700944  0.4297161861789816  0.5836098047760871
  0.1953786094700944  0.9297161861789816  0.9163901952239129
  0.8046213905299057  0.0702838138210184  0.0836098047760871
  0.0804553694849872  0.7931570403759491  0.1913698822648597
  0.9195446525150076  0.2068429596240509  0.8086301467351391
  0.9195446525150076  0.7068429596240509  0.6913698532648609
  0.0804553694849872  0.2931570403759491  0.3086301177351404
  0.9195446525150076  0.2931570403759491  0.3086301177351404
  0.0804553694849872  0.7068429596240509  0.6913698532648609
  0.0804553694849872  0.2068429596240509  0.8086301467351391
  0.9195446525150076  0.7931570403759491  0.1913698822648597
  0.5804553474849924  0.2931570403759491  0.1913698822648597
  0.4195446235150087  0.7068429596240509  0.8086301467351391
  0.4195446235150087  0.2068429596240509  0.6913698532648609
  0.5804553474849924  0.7931570403759491  0.3086301177351404
  0.4195446235150087  0.7931570403759491  0.3086301177351404
  0.5804553474849924  0.2068429596240509  0.6913698532648609
  0.5804553474849924  0.7068429596240509  0.8086301467351391
  0.4195446235150087  0.2931570403759491  0.1913698822648597
 -0.0000000000000000  0.5952771923753969  0.2103108385998262
 -0.0000000000000000  0.4047228076246032  0.7896891314001714
 -0.0000000000000000  0.9047228076246031  0.7103108685998286
 -0.0000000000000000  0.0952771923753968  0.2896891614001737
  0.5000000000000000  0.0952771923753968  0.2103108385998262
  0.5000000000000000  0.9047228076246031  0.7896891314001714
  0.5000000000000000  0.4047228076246032  0.7103108685998286
  0.5000000000000000  0.5952771923753969  0.2896891614001737
 -0.0000000000000000  0.7274932609857303  0.1992676532806286
 -0.0000000000000000  0.2725067390142695  0.8007323317193736
 -0.0000000000000000  0.7725067390142697  0.6992676682806264
 -0.0000000000000000  0.2274932609857304  0.3007323317193737
  0.5000000000000000  0.2274932609857304  0.1992676532806286
  0.5000000000000000  0.7725067390142697  0.8007323317193736
  0.5000000000000000  0.2725067390142695  0.6992676682806264
  0.5000000000000000  0.7274932609857303  0.3007323317193737
  0.7495213956305413  0.5000000000000000  0.0000000000000000
  0.2504786043694588  0.5000000000000000  0.0000000000000000
  0.2504786043694588 -0.0000000000000000  0.5000000000000000
  0.7495213956305413 -0.0000000000000000  0.5000000000000000
  0.2495213956305411 -0.0000000000000000  0.0000000000000000
  0.7504786043694587 -0.0000000000000000  0.0000000000000000
  0.7504786043694587  0.5000000000000000  0.5000000000000000
  0.2495213956305411  0.5000000000000000  0.5000000000000000
 
  0.00000000E+00  0.00000000E+00  0.00000000E+00
  0.00000000E+00  0.00000000E+00  0.00000000E+00
  0.00000000E+00  0.00000000E+00  0.00000000E+00
  0.00000000E+00  0.00000000E+00  0.00000000E+00
  0.00000000E+00  0.00000000E+00  0.00000000E+00
  0.00000000E+00  0.00000000E+00  0.00000000E+00
  0.00000000E+00  0.00000000E+00  0.00000000E+00
  0.00000000E+00  0.00000000E+00  0.00000000E+00
  0.00000000E+00  0.00000000E+00  0.00000000E+00
  0.00000000E+00  0.00000000E+00  0.00000000E+00
  0.00000000E+00  0.00000000E+00  0.00000000E+00
  0.00000000E+00  0.00000000E+00  0.00000000E+00
  0.00000000E+00  0.00000000E+00  0.00000000E+00
  0.00000000E+00  0.00000000E+00  0.00000000E+00
  0.00000000E+00  0.00000000E+00  0.00000000E+00
  0.00000000E+00  0.00000000E+00  0.00000000E+00
  0.00000000E+00  0.00000000E+00  0.00000000E+00
  0.00000000E+00  0.00000000E+00  0.00000000E+00
  0.00000000E+00  0.00000000E+00  0.00000000E+00
  0.00000000E+00  0.00000000E+00  0.00000000E+00
  0.00000000E+00  0.00000000E+00  0.00000000E+00
  0.00000000E+00  0.00000000E+00  0.00000000E+00
  0.00000000E+00  0.00000000E+00  0.00000000E+00
  0.00000000E+00  0.00000000E+00  0.00000000E+00
  0.00000000E+00  0.00000000E+00  0.00000000E+00
  0.00000000E+00  0.00000000E+00  0.00000000E+00
  0.00000000E+00  0.00000000E+00  0.00000000E+00
  0.00000000E+00  0.00000000E+00  0.00000000E+00
  0.00000000E+00  0.00000000E+00  0.00000000E+00
  0.00000000E+00  0.00000000E+00  0.00000000E+00
  0.00000000E+00  0.00000000E+00  0.00000000E+00
  0.00000000E+00  0.00000000E+00  0.00000000E+00
  0.00000000E+00  0.00000000E+00  0.00000000E+00
  0.00000000E+00  0.00000000E+00  0.00000000E+00
  0.00000000E+00  0.00000000E+00  0.00000000E+00
  0.00000000E+00  0.00000000E+00  0.00000000E+00
  0.00000000E+00  0.00000000E+00  0.00000000E+00
  0.00000000E+00  0.00000000E+00  0.00000000E+00
  0.00000000E+00  0.00000000E+00  0.00000000E+00
  0.00000000E+00  0.00000000E+00  0.00000000E+00
  0.00000000E+00  0.00000000E+00  0.00000000E+00
  0.00000000E+00  0.00000000E+00  0.00000000E+00
  0.00000000E+00  0.00000000E+00  0.00000000E+00
  0.00000000E+00  0.00000000E+00  0.00000000E+00
  0.00000000E+00  0.00000000E+00  0.00000000E+00
  0.00000000E+00  0.00000000E+00  0.00000000E+00
  0.00000000E+00  0.00000000E+00  0.00000000E+00
  0.00000000E+00  0.00000000E+00  0.00000000E+00
  0.00000000E+00  0.00000000E+00  0.00000000E+00
  0.00000000E+00  0.00000000E+00  0.00000000E+00
  0.00000000E+00  0.00000000E+00  0.00000000E+00
  0.00000000E+00  0.00000000E+00  0.00000000E+00
  0.00000000E+00  0.00000000E+00  0.00000000E+00
  0.00000000E+00  0.00000000E+00  0.00000000E+00
  0.00000000E+00  0.00000000E+00  0.00000000E+00
  0.00000000E+00  0.00000000E+00  0.00000000E+00
  0.00000000E+00  0.00000000E+00  0.00000000E+00
  0.00000000E+00  0.00000000E+00  0.00000000E+00
  0.00000000E+00  0.00000000E+00  0.00000000E+00
  0.00000000E+00  0.00000000E+00  0.00000000E+00
  0.00000000E+00  0.00000000E+00  0.00000000E+00
  0.00000000E+00  0.00000000E+00  0.00000000E+00
  0.00000000E+00  0.00000000E+00  0.00000000E+00
  0.00000000E+00  0.00000000E+00  0.00000000E+00
  0.00000000E+00  0.00000000E+00  0.00000000E+00
  0.00000000E+00  0.00000000E+00  0.00000000E+00
  0.00000000E+00  0.00000000E+00  0.00000000E+00
  0.00000000E+00  0.00000000E+00  0.00000000E+00
  0.00000000E+00  0.00000000E+00  0.00000000E+00
  0.00000000E+00  0.00000000E+00  0.00000000E+00
  0.00000000E+00  0.00000000E+00  0.00000000E+00
  0.00000000E+00  0.00000000E+00  0.00000000E+00
