methane-low                             
  0.912580527000000     
    11.7079000473000008    0.0000000000000000    0.0000000000000000
     0.0000000000000000    8.1892995834000004    0.0000000000000000
     0.0000000000000000    0.0000000000000000    8.1842002868999995
   H    C 
    64    16
Direct
 -0.0346774658011583  0.8111701933860005  0.1207829018272804
  0.0346774878011529  0.1888298066139991  0.8792171271727184
  0.0346774878011529  0.6888298066139995  0.6207828728272816
 -0.0346774658011583  0.3111701933860003  0.3792170981727196
  0.0346774878011529  0.3111701933860003  0.3792170981727197
 -0.0346774658011583  0.6888298066139995  0.6207828728272816
 -0.0346774658011584  0.1888298066139991  0.8792171271727184
  0.0346774878011529  0.8111701933860005  0.1207829018272804
  0.4653225121988471  0.3111701933860003  0.1207829018272804
  0.5346774588011542  0.6888298066139995  0.8792171271727184
  0.5346774588011540  0.1888298066139991  0.6207828728272816
  0.4653225121988471  0.8111701933860005  0.3792170981727197
  0.5346774588011541  0.8111701933860005  0.3792170981727197
  0.4653225121988471  0.1888298066139991  0.6207828728272816
  0.4653225121988471  0.6888298066139995  0.8792171271727184
  0.5346774588011542  0.3111701933860003  0.1207829018272804
  0.7576202966196232  0.5924815030821229  0.9251833665158048
  0.2423797033803769  0.4075184969178776  0.0748166334841953
  0.2423797033803769  0.9075184969178771  0.4251833665158052
  0.7576202966196232  0.0924815030821224  0.5748166334841951
  0.2423797033803769  0.0924815030821225  0.5748166334841951
  0.7576202966196232  0.9075184969178771  0.4251833665158051
  0.7576202966196232  0.4075184969178777  0.0748166334841953
  0.2423797033803769  0.5924815030821229  0.9251833665158049
  0.2576202966196229  0.0924815030821224  0.9251833665158049
  0.7423797033803768  0.9075184969178771  0.0748166334841953
  0.7423797033803768  0.4075184969178777  0.4251833665158051
  0.2576202966196229  0.5924815030821229  0.5748166334841951
  0.7423797033803768  0.5924815030821229  0.5748166334841952
  0.2576202966196229  0.4075184969178777  0.4251833665158052
  0.2576202966196229  0.9075184969178771  0.0748166334841953
  0.7423797033803768  0.0924815030821224  0.9251833665158049
  0.6392106517090513  0.5749003616303733  0.0932576137043920
  0.3607893482909478  0.4250996383696269  0.9067423862956083
  0.3607893482909477  0.9250996383696267  0.5932576137043917
  0.6392106517090513  0.0749003616303729  0.4067423862956077
  0.3607893482909478  0.0749003616303729  0.4067423862956077
  0.6392106517090513  0.9250996383696267  0.5932576137043916
  0.6392106517090513  0.4250996383696269  0.9067423862956083
  0.3607893482909477  0.5749003616303731  0.0932576137043920
  0.1392106517090518  0.0749003616303729  0.0932576137043920
  0.8607893482909487  0.9250996383696269  0.9067423862956083
  0.8607893482909487  0.4250996383696269  0.5932576137043917
  0.1392106517090518  0.5749003616303732  0.4067423862956077
  0.8607893482909487  0.5749003616303732  0.4067423862956077
  0.1392106517090518  0.4250996383696269  0.5932576137043917
  0.1392106517090518  0.9250996383696268  0.9067423862956083
  0.8607893482909487  0.0749003616303729  0.0932576137043920
  0.0000000000000000  0.5485238183458062  0.2003351807318317
  0.0000000000000000  0.4514761816541932  0.7996647892681661
  0.0000000000000000 -0.0485238183458066  0.7003352107318341
  0.0000000000000000  0.0485238183458066  0.2996648192681684
  0.5000000000000000  0.0485238183458066  0.2003351807318316
  0.5000000000000000 -0.0485238183458066  0.7996647892681659
  0.5000000000000000  0.4514761816541932  0.7003352107318341
  0.5000000000000000  0.5485238183458062  0.2996648192681684
  0.0000000000000000  0.6779028771991567 -0.1026157503351901
  0.0000000000000000  0.3220971228008438  0.1026157503351899
  0.0000000000000000 -0.1779028771991564 -0.6026157503351898
  0.0000000000000000  0.1779028771991563  0.6026157503351898
  0.5000000000000000  0.1779028771991562 -0.1026157503351901
  0.5000000000000000 -0.1779028771991562  0.1026157503351899
  0.5000000000000000  0.3220971228008437 -0.6026157503351898
  0.5000000000000000  0.6779028771991568  0.6026157503351898
  0.0000000000000000  0.5346548604741369 -0.0812896229241711
  0.0000000000000000  0.4653451395258627  0.0812896079241734
  0.0000000000000000 -0.0346548604741371  0.4187103920758263
  0.0000000000000000  0.0346548604741372 -0.4187103920758264
  0.5000000000000000  0.0346548604741372 -0.0812896229241711
  0.5000000000000000 -0.0346548604741372  0.0812896079241734
  0.5000000000000000  0.4653451395258626  0.4187103920758263
  0.5000000000000000  0.5346548604741369 -0.4187103920758264
  0.6981713731278477  0.5000000000000000 -0.0000000000000000
  0.3018286268721518  0.5000000000000000 -0.0000000000000000
  0.3018286268721520 -0.0000000000000000  0.5000000000000000
  0.6981713731278477 -0.0000000000000000  0.5000000000000000
  0.1981713731278482 -0.0000000000000000 -0.0000000000000000
  0.8018286268721523 -0.0000000000000000 -0.0000000000000000
  0.8018286268721523  0.5000000000000000  0.5000000000000000
  0.1981713731278482  0.5000000000000000  0.5000000000000000
 
  0.00000000E+00  0.00000000E+00  0.00000000E+00
  0.00000000E+00  0.00000000E+00  0.00000000E+00
  0.00000000E+00  0.00000000E+00  0.00000000E+00
  0.00000000E+00  0.00000000E+00  0.00000000E+00
  0.00000000E+00  0.00000000E+00  0.00000000E+00
  0.00000000E+00  0.00000000E+00  0.00000000E+00
  0.00000000E+00  0.00000000E+00  0.00000000E+00
  0.00000000E+00  0.00000000E+00  0.00000000E+00
  0.00000000E+00  0.00000000E+00  0.00000000E+00
  0.00000000E+00  0.00000000E+00  0.00000000E+00
  0.00000000E+00  0.00000000E+00  0.00000000E+00
  0.00000000E+00  0.00000000E+00  0.00000000E+00
  0.00000000E+00  0.00000000E+00  0.00000000E+00
  0.00000000E+00  0.00000000E+00  0.00000000E+00
  0.00000000E+00  0.00000000E+00  0.00000000E+00
  0.00000000E+00  0.00000000E+00  0.00000000E+00
  0.00000000E+00  0.00000000E+00  0.00000000E+00
  0.00000000E+00  0.00000000E+00  0.00000000E+00
  0.00000000E+00  0.00000000E+00  0.00000000E+00
  0.00000000E+00  0.00000000E+00  0.00000000E+00
  0.00000000E+00  0.00000000E+00  0.00000000E+00
  0.00000000E+00  0.00000000E+00  0.00000000E+00
  0.00000000E+00  0.00000000E+00  0.00000000E+00
  0.00000000E+00  0.00000000E+00  0.00000000E+00
  0.00000000E+00  0.00000000E+00  0.00000000E+00
  0.00000000E+00  0.00000000E+00  0.00000000E+00
  0.00000000E+00  0.00000000E+00  0.00000000E+00
  0.00000000E+00  0.00000000E+00  0.00000000E+00
  0.00000000E+00  0.00000000E+00  0.00000000E+00
  0.00000000E+00  0.00000000E+00  0.00000000E+00
  0.00000000E+00  0.00000000E+00  0.00000000E+00
  0.00000000E+00  0.00000000E+00  0.00000000E+00
  0.00000000E+00  0.00000000E+00  0.00000000E+00
  0.00000000E+00  0.00000000E+00  0.00000000E+00
  0.00000000E+00  0.00000000E+00  0.00000000E+00
  0.00000000E+00  0.00000000E+00  0.00000000E+00
  0.00000000E+00  0.00000000E+00  0.00000000E+00
  0.00000000E+00  0.00000000E+00  0.00000000E+00
  0.00000000E+00  0.00000000E+00  0.00000000E+00
  0.00000000E+00  0.00000000E+00  0.00000000E+00
  0.00000000E+00  0.00000000E+00  0.00000000E+00
  0.00000000E+00  0.00000000E+00  0.00000000E+00
  0.00000000E+00  0.00000000E+00  0.00000000E+00
  0.00000000E+00  0.00000000E+00  0.00000000E+00
  0.00000000E+00  0.00000000E+00  0.00000000E+00
  0.00000000E+00  0.00000000E+00  0.00000000E+00
  0.00000000E+00  0.00000000E+00  0.00000000E+00
  0.00000000E+00  0.00000000E+00  0.00000000E+00
  0.00000000E+00  0.00000000E+00  0.00000000E+00
  0.00000000E+00  0.00000000E+00  0.00000000E+00
  0.00000000E+00  0.00000000E+00  0.00000000E+00
  0.00000000E+00  0.00000000E+00  0.00000000E+00
  0.00000000E+00  0.00000000E+00  0.00000000E+00
  0.00000000E+00  0.00000000E+00  0.00000000E+00
  0.00000000E+00  0.00000000E+00  0.00000000E+00
  0.00000000E+00  0.00000000E+00  0.00000000E+00
  0.00000000E+00  0.00000000E+00  0.00000000E+00
  0.00000000E+00  0.00000000E+00  0.00000000E+00
  0.00000000E+00  0.00000000E+00  0.00000000E+00
  0.00000000E+00  0.00000000E+00  0.00000000E+00
  0.00000000E+00  0.00000000E+00  0.00000000E+00
  0.00000000E+00  0.00000000E+00  0.00000000E+00
  0.00000000E+00  0.00000000E+00  0.00000000E+00
  0.00000000E+00  0.00000000E+00  0.00000000E+00
  0.00000000E+00  0.00000000E+00  0.00000000E+00
  0.00000000E+00  0.00000000E+00  0.00000000E+00
  0.00000000E+00  0.00000000E+00  0.00000000E+00
  0.00000000E+00  0.00000000E+00  0.00000000E+00
  0.00000000E+00  0.00000000E+00  0.00000000E+00
  0.00000000E+00  0.00000000E+00  0.00000000E+00
  0.00000000E+00  0.00000000E+00  0.00000000E+00
  0.00000000E+00  0.00000000E+00  0.00000000E+00
  0.00000000E+00  0.00000000E+00  0.00000000E+00
  0.00000000E+00  0.00000000E+00  0.00000000E+00
  0.00000000E+00  0.00000000E+00  0.00000000E+00
  0.00000000E+00  0.00000000E+00  0.00000000E+00
  0.00000000E+00  0.00000000E+00  0.00000000E+00
  0.00000000E+00  0.00000000E+00  0.00000000E+00
  0.00000000E+00  0.00000000E+00  0.00000000E+00
  0.00000000E+00  0.00000000E+00  0.00000000E+00
