C6 H6                                   
   1.00000000000000     
     7.3550000000000004    0.0000000000000000    0.0000000000000000
     0.0000000000000000    9.3710000000000004    0.0000000000000000
     0.0000000000000000    0.0000000000000000    6.7000000000000002
   C    H 
    24    24
Direct
  0.9492277949955343  0.1321757619885590  0.0014396958158815
  0.0507721860044676  0.8678242380114410 -0.0014396698158793
  0.5507722050044657  0.8678242380114410  0.5014396668158756
  0.4492278249955297  0.1321757619885590  0.4985603041841186
  0.0507721860044676  0.6321757619885590  0.4985603041841186
  0.9492277949955343  0.3678242380114411  0.5014396668158756
  0.4492278249955297  0.3678242380114411 -0.0014396698158793
  0.5507722050044657  0.6321757619885590  0.0014396958158815
  0.0724782277924580  0.0878097941706999  0.1257885521668305
  0.9275217872075396  0.9121901828293018  0.8742114178331671
  0.4275217872075396  0.9121901828293018  0.6257885821668330
  0.5724782127924604  0.0878097941706999  0.3742114478331696
  0.9275217872075396  0.5878098171706982  0.3742114478331695
  0.0724782277924580  0.4121902128293042  0.6257885821668329
  0.5724782127924604  0.4121902128293042  0.8742114178331670
  0.4275217872075396  0.5878098171706982  0.1257885521668305
  0.8746916504233355  0.0441601137891163  0.8762793287585607
  0.1253083495766644  0.9558398642108819  0.1237206712414392
  0.6253083495766645  0.9558398642108819  0.3762793287585607
  0.3746916504233356  0.0441601137891163  0.6237206712414393
  0.1253083495766644  0.5441601357891181  0.6237206712414393
  0.8746916504233355  0.4558398932108808  0.3762793287585607
  0.3746916504233356  0.4558398932108808  0.1237206712414392
  0.6253083495766645  0.5441601357891181  0.8762793287585607
  0.9084462326691458  0.2390313760473564  0.9992053485750607
  0.0915537523308565  0.7609686379526376  0.0007946804249381
  0.5915537673308542  0.7609686379526376  0.4992053195750619
  0.4084462326691458  0.2390313760473564  0.5007946514249393
  0.0915537523308565  0.7390313620473624  0.5007946514249393
  0.9084462326691458  0.2609686379526376  0.4992053195750619
  0.4084462326691458  0.2609686379526376  0.0007946804249381
  0.5915537673308542  0.7390313620473624  0.9992053485750607
  0.1306577003770009  0.1571945799650376  0.2298092914571583
  0.8693422856229980  0.8428054050349576  0.7701906935428441
  0.3693422856229979  0.8428054050349576  0.7298093064571559
  0.6306577143770020  0.1571945799650376  0.2701906935428440
  0.8693422856229980  0.6571945949650424  0.2701906935428440
  0.1306577003770009  0.3428054050349576  0.7298093064571559
  0.6306577143770020  0.3428054050349576  0.7701906935428441
  0.3693422856229979  0.6571945949650424  0.2298092914571583
  0.7737172435986469  0.0788577733690510  0.7798016854303973
  0.2262827414013554  0.9211422416309538  0.2201983295696004
  0.7262827564013531  0.9211422416309538  0.2798016854303972
  0.2737172435986469  0.0788577733690510  0.7201983145696028
  0.2262827414013554  0.5788577583690462  0.7201983145696027
  0.7737172435986469  0.4211422416309538  0.2798016854303972
  0.2737172435986469  0.4211422416309538  0.2201983295696004
  0.7262827564013530  0.5788577583690462  0.7798016854303973
 
  0.00000000E+00  0.00000000E+00  0.00000000E+00
  0.00000000E+00  0.00000000E+00  0.00000000E+00
  0.00000000E+00  0.00000000E+00  0.00000000E+00
  0.00000000E+00  0.00000000E+00  0.00000000E+00
  0.00000000E+00  0.00000000E+00  0.00000000E+00
  0.00000000E+00  0.00000000E+00  0.00000000E+00
  0.00000000E+00  0.00000000E+00  0.00000000E+00
  0.00000000E+00  0.00000000E+00  0.00000000E+00
  0.00000000E+00  0.00000000E+00  0.00000000E+00
  0.00000000E+00  0.00000000E+00  0.00000000E+00
  0.00000000E+00  0.00000000E+00  0.00000000E+00
  0.00000000E+00  0.00000000E+00  0.00000000E+00
  0.00000000E+00  0.00000000E+00  0.00000000E+00
  0.00000000E+00  0.00000000E+00  0.00000000E+00
  0.00000000E+00  0.00000000E+00  0.00000000E+00
  0.00000000E+00  0.00000000E+00  0.00000000E+00
  0.00000000E+00  0.00000000E+00  0.00000000E+00
  0.00000000E+00  0.00000000E+00  0.00000000E+00
  0.00000000E+00  0.00000000E+00  0.00000000E+00
  0.00000000E+00  0.00000000E+00  0.00000000E+00
  0.00000000E+00  0.00000000E+00  0.00000000E+00
  0.00000000E+00  0.00000000E+00  0.00000000E+00
  0.00000000E+00  0.00000000E+00  0.00000000E+00
  0.00000000E+00  0.00000000E+00  0.00000000E+00
  0.00000000E+00  0.00000000E+00  0.00000000E+00
  0.00000000E+00  0.00000000E+00  0.00000000E+00
  0.00000000E+00  0.00000000E+00  0.00000000E+00
  0.00000000E+00  0.00000000E+00  0.00000000E+00
  0.00000000E+00  0.00000000E+00  0.00000000E+00
  0.00000000E+00  0.00000000E+00  0.00000000E+00
  0.00000000E+00  0.00000000E+00  0.00000000E+00
  0.00000000E+00  0.00000000E+00  0.00000000E+00
  0.00000000E+00  0.00000000E+00  0.00000000E+00
  0.00000000E+00  0.00000000E+00  0.00000000E+00
  0.00000000E+00  0.00000000E+00  0.00000000E+00
  0.00000000E+00  0.00000000E+00  0.00000000E+00
  0.00000000E+00  0.00000000E+00  0.00000000E+00
  0.00000000E+00  0.00000000E+00  0.00000000E+00
  0.00000000E+00  0.00000000E+00  0.00000000E+00
  0.00000000E+00  0.00000000E+00  0.00000000E+00
  0.00000000E+00  0.00000000E+00  0.00000000E+00
  0.00000000E+00  0.00000000E+00  0.00000000E+00
  0.00000000E+00  0.00000000E+00  0.00000000E+00
  0.00000000E+00  0.00000000E+00  0.00000000E+00
  0.00000000E+00  0.00000000E+00  0.00000000E+00
  0.00000000E+00  0.00000000E+00  0.00000000E+00
  0.00000000E+00  0.00000000E+00  0.00000000E+00
  0.00000000E+00  0.00000000E+00  0.00000000E+00
