B4C B11C-CBC
0
G            # Gamma centered Monkhorst-Pack grids
12 12 8      # 
0.0 0.0 0.0  # No shift

