C H
   1.0
    14.7100000000000009    0.0000000000000000    0.0000000000000000
     0.0000000000000000   18.7420000000000009    0.0000000000000000
     0.0000000000000000    0.0000000000000000   13.4000000000000004
 192  192
Direct
  0.4723594027115862  0.0713699318564894  0.0012819444440797
  0.9723594027115861  0.0713699318564894  0.0012819444440797
  0.4723594027115862  0.5713699318564893  0.0012819444440797
  0.9723594027115861  0.5713699318564893  0.0012819444440797
  0.4723594027115862  0.0713699318564894  0.5012819444440796
  0.9723594027115861  0.0713699318564894  0.5012819444440796
  0.4723594027115862  0.5713699318564893  0.5012819444440796
  0.9723594027115861  0.5713699318564893  0.5012819444440796
  0.0276405877884151  0.4286300681435106  0.9987180685559214
  0.5276405877884150  0.4286300681435106  0.9987180685559214
  0.0276405877884151  0.9286300681435106  0.9987180685559214
  0.5276405877884150  0.9286300681435106  0.9987180685559214
  0.0276405877884151  0.4286300681435106  0.4987180685559213
  0.5276405877884150  0.4286300681435106  0.4987180685559213
  0.0276405877884151  0.9286300681435106  0.4987180685559213
  0.5276405877884150  0.9286300681435106  0.4987180685559213
  0.2776405972884139  0.4286300681435106  0.2512819299440768
  0.7776405972884141  0.4286300681435106  0.2512819299440768
  0.2776405972884139  0.9286300681435106  0.2512819299440768
  0.7776405972884141  0.9286300681435106  0.2512819299440768
  0.2776405972884139  0.4286300681435106  0.7512819299440767
  0.7776405972884141  0.4286300681435106  0.7512819299440767
  0.2776405972884139  0.9286300681435106  0.7512819299440767
  0.7776405972884141  0.9286300681435106  0.7512819299440767
  0.2223594177115835  0.0713699318564894  0.2487180555559202
  0.7223594177115836  0.0713699318564894  0.2487180555559202
  0.2223594177115835  0.5713699318564893  0.2487180555559202
  0.7223594177115836  0.5713699318564893  0.2487180555559202
  0.2223594177115835  0.0713699318564894  0.7487180555559202
  0.7223594177115836  0.0713699318564894  0.7487180555559202
  0.2223594177115835  0.5713699318564893  0.7487180555559202
  0.7223594177115836  0.5713699318564893  0.7487180555559202
  0.0276405877884151  0.3213699318564894  0.2487180555559202
  0.5276405877884150  0.3213699318564894  0.2487180555559202
  0.0276405877884151  0.8213699318564894  0.2487180555559202
  0.5276405877884150  0.8213699318564894  0.2487180555559202
  0.0276405877884151  0.3213699318564894  0.7487180555559202
  0.5276405877884150  0.3213699318564894  0.7487180555559202
  0.0276405877884151  0.8213699318564894  0.7487180555559202
  0.5276405877884150  0.8213699318564894  0.7487180555559202
  0.4723594027115862  0.1786300681435106  0.2512819299440768
  0.9723594027115861  0.1786300681435106  0.2512819299440768
  0.4723594027115862  0.6786300681435105  0.2512819299440768
  0.9723594027115861  0.6786300681435105  0.2512819299440768
  0.4723594027115862  0.1786300681435106  0.7512819299440767
  0.9723594027115861  0.1786300681435106  0.7512819299440767
  0.4723594027115862  0.6786300681435105  0.7512819299440767
  0.9723594027115861  0.6786300681435105  0.7512819299440767
  0.2223594177115835  0.1786300681435107  0.9987180685559214
  0.7223594177115836  0.1786300681435107  0.9987180685559214
  0.2223594177115835  0.6786300681435106  0.9987180685559214
  0.7223594177115836  0.6786300681435106  0.9987180685559214
  0.2223594177115835  0.1786300681435107  0.4987180685559213
  0.7223594177115836  0.1786300681435107  0.4987180685559213
  0.2223594177115835  0.6786300681435106  0.4987180685559213
  0.7223594177115836  0.6786300681435106  0.4987180685559213
  0.2776405972884139  0.3213699318564894  0.0012819444440797
  0.7776405972884141  0.3213699318564894  0.0012819444440797
  0.2776405972884139  0.8213699318564894  0.0012819444440797
  0.7776405972884141  0.8213699318564894  0.0012819444440797
  0.2776405972884139  0.3213699318564894  0.5012819444440796
  0.7776405972884141  0.3213699318564894  0.5012819444440796
  0.2776405972884139  0.8213699318564894  0.5012819444440796
  0.7776405972884141  0.8213699318564894  0.5012819444440796
  0.0392878831543282  0.0476074147116453  0.0682199078481697
  0.5392878831543282  0.0476074147116453  0.0674736391914533
  0.0392878831543282  0.5476074147116453  0.0674736391914533
  0.5392878831543282  0.5476074147116453  0.0674736391914533
  0.0392878831543282  0.0476074147116453  0.5674736391914533
  0.5392878831543282  0.0476074147116453  0.5674736391914533
  0.0392878831543282  0.5476074147116453  0.5674736391914533
  0.5392878831543282  0.5476074147116453  0.5674736391914533
  0.4607121243456709  0.4523925737883555  0.4325263458085454
  0.9607121243456710  0.4523925737883555  0.4325263458085454
  0.4607121243456709  0.9523925737883554  0.4325263458085454
  0.9607121243456710  0.9523925737883554  0.4325263458085454
  0.4607121243456709  0.4523925737883555  0.9325263458085454
  0.9607121243456710  0.4523925737883555  0.9325263458085454
  0.4607121243456709  0.9523925737883554  0.9325263458085454
  0.9607121243456710  0.9523925737883554  0.9325263458085454
  0.2107121243456707  0.4523925737883555  0.3174736541914545
  0.7107121243456708  0.4523925737883555  0.3174736541914545
  0.2107121243456707  0.9523925737883554  0.3174736541914545
  0.7107121243456708  0.9523925737883554  0.3174736541914545
  0.2107121243456707  0.4523925737883555  0.8174736541914545
  0.7107121243456708  0.4523925737883555  0.8174736541914545
  0.2107121243456707  0.9523925737883554  0.8174736541914545
  0.7107121243456708  0.9523925737883554  0.8174736541914545
  0.2892878756543292  0.0476074147116453  0.1825263608085466
  0.7892878756543291  0.0476074147116453  0.1825263608085466
  0.2892878756543292  0.5476074147116453  0.1825263608085466
  0.7892878756543291  0.5476074147116453  0.1825263608085466
  0.2892878756543292  0.0476074147116453  0.6825263608085467
  0.7892878756543291  0.0476074147116453  0.6825263608085467
  0.2892878756543292  0.5476074147116453  0.6825263608085467
  0.7892878756543291  0.5476074147116453  0.6825263608085467
  0.4607121243456709  0.2976074262116444  0.1825263608085467
  0.9607121243456710  0.2976074262116444  0.1825263608085467
  0.4607121243456709  0.7976074262116445  0.1825263608085467
  0.9607121243456710  0.7976074262116445  0.1825263608085467
  0.4607121243456709  0.2976074262116444  0.6825263608085467
  0.9607121243456710  0.2976074262116444  0.6825263608085467
  0.4607121243456709  0.7976074262116445  0.6825263608085467
  0.9607121243456710  0.7976074262116445  0.6825263608085467
  0.0392878831543282  0.2023925887883568  0.3174736541914545
  0.5392878831543282  0.2023925887883568  0.3174736541914545
  0.0392878831543282  0.7023925887883569  0.3174736541914545
  0.5392878831543282  0.7023925887883569  0.3174736541914545
  0.0392878831543282  0.2023925887883568  0.8174736541914545
  0.5392878831543282  0.2023925887883568  0.8174736541914545
  0.0392878831543282  0.7023925887883569  0.8174736541914545
  0.5392878831543282  0.7023925887883569  0.8174736541914545
  0.2892878756543292  0.2023925887883568  0.4325263458085454
  0.7892878756543291  0.2023925887883568  0.4325263458085454
  0.2892878756543292  0.7023925887883569  0.4325263458085454
  0.7892878756543291  0.7023925887883569  0.4325263458085454
  0.2892878756543292  0.2023925887883568  0.9325263458085454
  0.7892878756543291  0.2023925887883568  0.9325263458085454
  0.2892878756543292  0.7023925887883569  0.9325263458085454
  0.7892878756543291  0.7023925887883569  0.9325263458085454
  0.2107121243456707  0.2976074262116444  0.0674736391914533
  0.7107121243456708  0.2976074262116444  0.0674736391914533
  0.2107121243456707  0.7976074262116445  0.0674736391914533
  0.7107121243456708  0.7976074262116445  0.0674736391914533
  0.2107121243456707  0.2976074262116444  0.5674736391914533
  0.7107121243456708  0.2976074262116444  0.5674736391914533
  0.2107121243456707  0.7976074262116445  0.5674736391914533
  0.7107121243456708  0.7976074262116445  0.5674736391914533
  0.4328745557221557  0.0236891281589283  0.4337669949554298
  0.9328745557221558  0.0236891281589283  0.4337669949554298
  0.4328745557221557  0.5236891281589282  0.4337669949554298
  0.9328745557221558  0.5236891281589282  0.4337669949554298
  0.4328745557221557  0.0236891281589283  0.9337669949554297
  0.9328745557221558  0.0236891281589283  0.9337669949554297
  0.4328745557221557  0.5236891281589282  0.9337669949554297
  0.9328745557221558  0.5236891281589282  0.9337669949554297
  0.0671254442778443  0.4763108608410708  0.0662330050445703
  0.5671254442778443  0.4763108608410708  0.0662330050445703
  0.0671254442778443  0.9763108608410708  0.0662330050445703
  0.5671254442778443  0.9763108608410708  0.0662330050445703
  0.0671254442778443  0.4763108608410708  0.5662330050445703
  0.5671254442778443  0.4763108608410708  0.5662330050445703
  0.0671254442778443  0.9763108608410708  0.5662330050445703
  0.5671254442778443  0.9763108608410708  0.5662330050445703
  0.3171254442778443  0.4763108608410708  0.1837669949554296
  0.8171254442778443  0.4763108608410708  0.1837669949554296
  0.3171254442778443  0.9763108608410708  0.1837669949554296
  0.8171254442778443  0.9763108608410708  0.1837669949554296
  0.3171254442778443  0.4763108608410708  0.6837669949554296
  0.8171254442778443  0.4763108608410708  0.6837669949554296
  0.3171254442778443  0.9763108608410708  0.6837669949554296
  0.8171254442778443  0.9763108608410708  0.6837669949554296
  0.1828745557221557  0.0236891281589283  0.3162330050445702
  0.6828745557221558  0.0236891281589283  0.3162330050445702
  0.1828745557221557  0.5236891281589282  0.3162330050445702
  0.6828745557221558  0.5236891281589282  0.3162330050445702
  0.1828745557221557  0.0236891281589283  0.8162330050445702
  0.6828745557221558  0.0236891281589283  0.8162330050445702
  0.1828745557221557  0.5236891281589282  0.8162330050445702
  0.6828745557221558  0.5236891281589282  0.8162330050445702
  0.0671254442778443  0.2736891391589291  0.3162330050445702
  0.5671254442778443  0.2736891391589291  0.3162330050445702
  0.0671254442778443  0.7736891391589290  0.3162330050445702
  0.5671254442778443  0.7736891391589290  0.3162330050445702
  0.0671254442778443  0.2736891391589291  0.8162330050445702
  0.5671254442778443  0.2736891391589291  0.8162330050445702
  0.0671254442778443  0.7736891391589290  0.8162330050445702
  0.5671254442778443  0.7736891391589290  0.8162330050445702
  0.4328745557221557  0.2263108753410702  0.1837669949554296
  0.9328745557221558  0.2263108753410702  0.1837669949554296
  0.4328745557221557  0.7263108753410702  0.1837669949554296
  0.9328745557221558  0.7263108753410702  0.1837669949554296
  0.4328745557221557  0.2263108753410702  0.6837669949554296
  0.9328745557221558  0.2263108753410702  0.6837669949554296
  0.4328745557221557  0.7263108753410702  0.6837669949554296
  0.9328745557221558  0.7263108753410702  0.6837669949554296
  0.1828745557221557  0.2263108753410702  0.0662330050445703
  0.6828745557221558  0.2263108753410702  0.0662330050445703
  0.1828745557221557  0.7263108753410702  0.0662330050445703
  0.6828745557221558  0.7263108753410702  0.0662330050445703
  0.1828745557221557  0.2263108753410702  0.5662330050445703
  0.6828745557221558  0.2263108753410702  0.5662330050445703
  0.1828745557221557  0.7263108753410702  0.5662330050445703
  0.6828745557221558  0.7263108753410702  0.5662330050445703
  0.3171254442778443  0.2736891391589291  0.4337669949554298
  0.8171254442778443  0.2736891391589291  0.4337669949554298
  0.3171254442778443  0.7736891391589290  0.4337669949554298
  0.8171254442778443  0.7736891391589290  0.4337669949554298
  0.3171254442778443  0.2736891391589291  0.9337669949554297
  0.8171254442778443  0.2736891391589291  0.9337669949554297
  0.3171254442778443  0.7736891391589290  0.9337669949554297
  0.8171254442778443  0.7736891391589290  0.9337669949554297
  0.4510029112784131  0.1270852179320542  0.0024202651142274
  0.9510029112784131  0.1270852179320542  0.0024202651142274
  0.4510029112784131  0.6270852179320542  0.0024202651142274
  0.9510029112784131  0.6270852179320542  0.0024202651142274
  0.4510029112784131  0.1270852179320542  0.5024202651142274
  0.9510029112784131  0.1270852179320542  0.5024202651142274
  0.4510029112784131  0.6270852179320542  0.5024202651142274
  0.9510029112784131  0.6270852179320542  0.5024202651142274
  0.0489970812215882  0.3729147890679431  0.9975797493857720
  0.5489970812215882  0.3729147890679431  0.9975797493857720
  0.0489970812215882  0.8729147890679432  0.9975797493857720
  0.5489970812215882  0.8729147890679432  0.9975797493857720
  0.0489970812215882  0.3729147890679431  0.4975797493857719
  0.5489970812215882  0.3729147890679431  0.4975797493857719
  0.0489970812215882  0.8729147890679432  0.4975797493857719
  0.5489970812215882  0.8729147890679432  0.4975797493857719
  0.2989970887215870  0.3729147890679431  0.2524202506142281
  0.7989970887215870  0.3729147890679431  0.2524202506142281
  0.2989970887215870  0.8729147890679432  0.2524202506142281
  0.7989970887215870  0.8729147890679432  0.2524202506142281
  0.2989970887215870  0.3729147890679431  0.7524202506142281
  0.7989970887215870  0.3729147890679431  0.7524202506142281
  0.2989970887215870  0.8729147890679432  0.7524202506142281
  0.7989970887215870  0.8729147890679432  0.7524202506142281
  0.2010029112784129  0.1270852179320542  0.2475797348857725
  0.7010029112784131  0.1270852179320542  0.2475797348857725
  0.2010029112784129  0.6270852179320542  0.2475797348857725
  0.7010029112784131  0.6270852179320542  0.2475797348857725
  0.2010029112784129  0.1270852179320542  0.7475797348857726
  0.7010029112784131  0.1270852179320542  0.7475797348857726
  0.2010029112784129  0.6270852179320542  0.7475797348857726
  0.7010029112784131  0.6270852179320542  0.7475797348857726
  0.0489970812215882  0.3770852109320569  0.2475797348857725
  0.5489970812215882  0.3770852109320569  0.2475797348857725
  0.0489970812215882  0.8770852109320567  0.2475797348857725
  0.5489970812215882  0.8770852109320567  0.2475797348857725
  0.0489970812215882  0.3770852109320569  0.7475797348857726
  0.5489970812215882  0.3770852109320569  0.7475797348857726
  0.0489970812215882  0.8770852109320567  0.7475797348857726
  0.5489970812215882  0.8770852109320567  0.7475797348857726
  0.4510029112784131  0.1229147890679429  0.2524202506142281
  0.9510029112784131  0.1229147890679429  0.2524202506142281
  0.4510029112784131  0.6229147890679430  0.2524202506142281
  0.9510029112784131  0.6229147890679430  0.2524202506142281
  0.4510029112784131  0.1229147890679429  0.7524202506142281
  0.9510029112784131  0.1229147890679429  0.7524202506142281
  0.4510029112784131  0.6229147890679430  0.7524202506142281
  0.9510029112784131  0.6229147890679430  0.7524202506142281
  0.2010029112784129  0.1229147890679429  0.9975797493857720
  0.7010029112784131  0.1229147890679429  0.9975797493857720
  0.2010029112784129  0.6229147890679430  0.9975797493857720
  0.7010029112784131  0.6229147890679430  0.9975797493857720
  0.2010029112784129  0.1229147890679429  0.4975797493857719
  0.7010029112784131  0.1229147890679429  0.4975797493857719
  0.2010029112784129  0.6229147890679430  0.4975797493857719
  0.7010029112784131  0.6229147890679430  0.4975797493857719
  0.2989970887215870  0.3770852109320569  0.0024202651142274
  0.7989970887215870  0.3770852109320569  0.0024202651142274
  0.2989970887215870  0.8770852109320567  0.0024202651142274
  0.7989970887215870  0.8770852109320567  0.0024202651142274
  0.2989970887215870  0.3770852109320569  0.5024202651142274
  0.7989970887215870  0.3770852109320569  0.5024202651142274
  0.2989970887215870  0.8770852109320567  0.5024202651142274
  0.7989970887215870  0.8770852109320567  0.5024202651142274
  0.0697472090399155  0.0845266141843334  0.1206038125513735
  0.5697472090399155  0.0845266141843334  0.1206038125513735
  0.0697472090399155  0.5845266141843334  0.1206038125513735
  0.5697472090399155  0.5845266141843334  0.1206038125513735
  0.0697472090399155  0.0845266141843334  0.6206038125513735
  0.5697472090399155  0.0845266141843334  0.6206038125513735
  0.0697472090399155  0.5845266141843334  0.6206038125513735
  0.5697472090399155  0.5845266141843334  0.6206038125513735
  0.4302527839600839  0.4154733783156643  0.3793961799486278
  0.9302527839600840  0.4154733783156643  0.3793961799486278
  0.4302527839600839  0.9154733783156643  0.3793961799486278
  0.9302527839600840  0.9154733783156643  0.3793961799486278
  0.4302527839600839  0.4154733783156643  0.8793961799486278
  0.9302527839600840  0.4154733783156643  0.8793961799486278
  0.4302527839600839  0.9154733783156643  0.8793961799486278
  0.9302527839600840  0.9154733783156643  0.8793961799486278
  0.1802527839600840  0.4154733783156643  0.3706038200513722
  0.6802527839600840  0.4154733783156643  0.3706038200513722
  0.1802527839600840  0.9154733783156643  0.3706038200513722
  0.6802527839600840  0.9154733783156643  0.3706038200513722
  0.1802527839600840  0.4154733783156643  0.8706038200513722
  0.6802527839600840  0.4154733783156643  0.8706038200513722
  0.1802527839600840  0.9154733783156643  0.8706038200513722
  0.6802527839600840  0.9154733783156643  0.8706038200513722
  0.3197472160399161  0.0845266141843334  0.1293961799486277
  0.8197472160399161  0.0845266141843334  0.1293961799486277
  0.3197472160399161  0.5845266141843334  0.1293961799486277
  0.8197472160399161  0.5845266141843334  0.1293961799486277
  0.3197472160399161  0.0845266141843334  0.6293961799486277
  0.8197472160399161  0.0845266141843334  0.6293961799486277
  0.3197472160399161  0.5845266141843334  0.6293961799486277
  0.8197472160399161  0.5845266141843334  0.6293961799486277
  0.4302527839600839  0.3345266216843357  0.1293961799486277
  0.9302527839600840  0.3345266216843357  0.1293961799486277
  0.4302527839600839  0.8345266216843357  0.1293961799486277
  0.9302527839600840  0.8345266216843357  0.1293961799486277
  0.4302527839600839  0.3345266216843357  0.6293961799486277
  0.9302527839600840  0.3345266216843357  0.6293961799486277
  0.4302527839600839  0.8345266216843357  0.6293961799486277
  0.9302527839600840  0.8345266216843357  0.6293961799486277
  0.0697472090399155  0.1654733783156643  0.3706038200513722
  0.5697472090399155  0.1654733783156643  0.3706038200513722
  0.0697472090399155  0.6654733783156642  0.3706038200513722
  0.5697472090399155  0.6654733783156642  0.3706038200513722
  0.0697472090399155  0.1654733783156643  0.8706038200513722
  0.5697472090399155  0.1654733783156643  0.8706038200513722
  0.0697472090399155  0.6654733783156642  0.8706038200513722
  0.5697472090399155  0.6654733783156642  0.8706038200513722
  0.3197472160399161  0.1654733783156643  0.3793961799486278
  0.8197472160399161  0.1654733783156643  0.3793961799486278
  0.3197472160399161  0.6654733783156642  0.3793961799486278
  0.8197472160399161  0.6654733783156642  0.3793961799486278
  0.3197472160399161  0.1654733783156643  0.8793961799486278
  0.8197472160399161  0.1654733783156643  0.8793961799486278
  0.3197472160399161  0.6654733783156642  0.8793961799486278
  0.8197472160399161  0.6654733783156642  0.8793961799486278
  0.1802527839600840  0.3345266216843357  0.1206038125513735
  0.6802527839600840  0.3345266216843357  0.1206038125513735
  0.1802527839600840  0.8345266216843357  0.1206038125513735
  0.6802527839600840  0.8345266216843357  0.1206038125513735
  0.1802527839600840  0.3345266216843357  0.6206038125513735
  0.6802527839600840  0.3345266216843357  0.6206038125513735
  0.1802527839600840  0.8345266216843357  0.6206038125513735
  0.6802527839600840  0.8345266216843357  0.6206038125513735
  0.3802962259374500  0.0415289052973567  0.3820773300931581
  0.8802962259374499  0.0415289052973567  0.3820773300931581
  0.3802962259374500  0.5415289052973565  0.3820773300931581
  0.8802962259374499  0.5415289052973565  0.3820773300931581
  0.3802962259374500  0.0415289052973567  0.8820773300931581
  0.8802962259374499  0.0415289052973567  0.8820773300931581
  0.3802962259374500  0.5415289052973565  0.8820773300931581
  0.8802962259374499  0.5415289052973565  0.8820773300931581
  0.1197037665625512  0.4584711022026458  0.1179226774068406
  0.6197037665625513  0.4584711022026458  0.1179226774068406
  0.1197037665625512  0.9584711022026458  0.1179226774068406
  0.6197037665625513  0.9584711022026458  0.1179226774068406
  0.1197037665625512  0.4584711022026458  0.6179226774068406
  0.6197037665625513  0.4584711022026458  0.6179226774068406
  0.1197037665625512  0.9584711022026458  0.6179226774068406
  0.6197037665625513  0.9584711022026458  0.6179226774068406
  0.3697037740625501  0.4584711022026458  0.1320773300931583
  0.8697037740625502  0.4584711022026458  0.1320773300931583
  0.3697037740625501  0.9584711022026458  0.1320773300931583
  0.8697037740625502  0.9584711022026458  0.1320773300931583
  0.3697037740625501  0.4584711022026458  0.6320773300931581
  0.8697037740625502  0.4584711022026458  0.6320773300931581
  0.3697037740625501  0.9584711022026458  0.6320773300931581
  0.8697037740625502  0.9584711022026458  0.6320773300931581
  0.1302962259374499  0.0415289052973567  0.3679226699068419
  0.6302962259374499  0.0415289052973567  0.3679226699068419
  0.1302962259374499  0.5415289052973565  0.3679226699068419
  0.6302962259374499  0.5415289052973565  0.3679226699068419
  0.1302962259374499  0.0415289052973567  0.8679226699068419
  0.6302962259374499  0.0415289052973567  0.8679226699068419
  0.1302962259374499  0.5415289052973565  0.8679226699068419
  0.6302962259374499  0.5415289052973565  0.8679226699068419
  0.1197037665625512  0.2915288977973542  0.3679226699068419
  0.6197037665625513  0.2915288977973542  0.3679226699068419
  0.1197037665625512  0.7915288977973541  0.3679226699068419
  0.6197037665625513  0.7915288977973541  0.3679226699068419
  0.1197037665625512  0.2915288977973542  0.8679226699068419
  0.6197037665625513  0.2915288977973542  0.8679226699068419
  0.1197037665625512  0.7915288977973541  0.8679226699068419
  0.6197037665625513  0.7915288977973541  0.8679226699068419
  0.3802962259374500  0.2084711022026457  0.1320773300931583
  0.8802962259374499  0.2084711022026457  0.1320773300931583
  0.3802962259374500  0.7084711022026458  0.1320773300931583
  0.8802962259374499  0.7084711022026458  0.1320773300931583
  0.3802962259374500  0.2084711022026457  0.6320773300931581
  0.8802962259374499  0.2084711022026457  0.6320773300931581
  0.3802962259374500  0.7084711022026458  0.6320773300931581
  0.8802962259374499  0.7084711022026458  0.6320773300931581
  0.1302962259374499  0.2084711022026457  0.1179226774068406
  0.6302962259374499  0.2084711022026457  0.1179226774068406
  0.1302962259374499  0.7084711022026458  0.1179226774068406
  0.6302962259374499  0.7084711022026458  0.1179226774068406
  0.1302962259374499  0.2084711022026457  0.6179226774068406
  0.6302962259374499  0.2084711022026457  0.6179226774068406
  0.1302962259374499  0.7084711022026458  0.6179226774068406
  0.6302962259374499  0.7084711022026458  0.6179226774068406
  0.3697037740625501  0.2915288977973542  0.3820773300931581
  0.8697037740625502  0.2915288977973542  0.3820773300931581
  0.3697037740625501  0.7915288977973541  0.3820773300931581
  0.8697037740625502  0.7915288977973541  0.3820773300931581
  0.3697037740625501  0.2915288977973542  0.8820773300931581
  0.8697037740625502  0.2915288977973542  0.8820773300931581
  0.3697037740625501  0.7915288977973541  0.8820773300931581
  0.8697037740625502  0.7915288977973541  0.8820773300931581
