C6 H6                                   
   1.00000000000000     
     7.3550000000000004    0.0000000000000000    0.0000000000000000
     0.0000000000000000    9.3710000000000004    0.0000000000000000
     0.0000000000000000    0.0000000000000000    6.7000000000000002
   C    H 
    24    24
Direct
0.444719	0.14274	0.0025638888881594
-0.444719	0.85726	-0.0025638628881573
0.0552812	0.85726	0.5025638598881536
-0.0552812	0.14274	0.4974361111118404
-0.444719	0.64274	0.4974361111118404
0.444719	0.35726	0.5025638598881536
-0.0552812	0.35726	-0.0025638628881573
0.0552812	0.64274	0.0025638888881594
-0.421424	0.0952148	0.1349472783829066
0.421424	0.904785	0.8650526916170910
-0.0785758	0.904785	0.6349473083829090
0.0785758	0.0952148	0.3650527216170933
0.421424	0.595215	0.3650527216170934
-0.421424	0.404785	0.6349473083829090
0.0785758	0.404785	0.8650526916170910
-0.0785758	0.595215	0.1349472783829066
0.365749	0.0473783	0.8675339899108596
-0.365749	0.952622	0.1324660100891406
0.134251	0.952622	0.3675339899108593
-0.134251	0.0473783	0.6324660100891404
-0.365749	0.547378	0.6324660100891404
0.365749	0.452622	0.3675339899108593
-0.134251	0.452622	0.1324660100891406
0.134251	0.547378	0.8675339899108596
0.402006	0.25417	0.0048405302284549
-0.402006	0.74583	-0.0048405012284560
0.0979942	0.74583	0.5048405012284561
-0.0979942	0.25417	0.4951594697715451
-0.402006	0.75417	0.4951594697715451
0.402006	0.24583	0.5048405012284561
-0.0979942	0.24583	-0.0048405012284560
0.0979942	0.75417	0.0048405302284549
-0.360506	0.169053	0.2412076251027470
0.360506	0.830947	0.7587923598972556
-0.139494	0.830947	0.7412076401027444
0.139494	0.169053	0.2587923598972554
0.360506	0.669053	0.2587923598972554
-0.360506	0.330947	0.7412076401027444
0.139494	0.330947	0.7587923598972556
-0.139494	0.669053	0.2412076251027470
0.260592	0.0830578	0.7641546601863163
-0.260592	0.916942	0.2358453548136811
0.239408	0.916942	0.2641546601863165
-0.239408	0.0830578	0.7358453398136837
-0.260592	0.583058	0.7358453398136837
0.260592	0.416942	0.2641546601863165
-0.239408	0.416942	0.2358453548136811
0.239408	0.583058	0.7641546601863163
 
  0.00000000E+00  0.00000000E+00  0.00000000E+00
  0.00000000E+00  0.00000000E+00  0.00000000E+00
  0.00000000E+00  0.00000000E+00  0.00000000E+00
  0.00000000E+00  0.00000000E+00  0.00000000E+00
  0.00000000E+00  0.00000000E+00  0.00000000E+00
  0.00000000E+00  0.00000000E+00  0.00000000E+00
  0.00000000E+00  0.00000000E+00  0.00000000E+00
  0.00000000E+00  0.00000000E+00  0.00000000E+00
  0.00000000E+00  0.00000000E+00  0.00000000E+00
  0.00000000E+00  0.00000000E+00  0.00000000E+00
  0.00000000E+00  0.00000000E+00  0.00000000E+00
  0.00000000E+00  0.00000000E+00  0.00000000E+00
  0.00000000E+00  0.00000000E+00  0.00000000E+00
  0.00000000E+00  0.00000000E+00  0.00000000E+00
  0.00000000E+00  0.00000000E+00  0.00000000E+00
  0.00000000E+00  0.00000000E+00  0.00000000E+00
  0.00000000E+00  0.00000000E+00  0.00000000E+00
  0.00000000E+00  0.00000000E+00  0.00000000E+00
  0.00000000E+00  0.00000000E+00  0.00000000E+00
  0.00000000E+00  0.00000000E+00  0.00000000E+00
  0.00000000E+00  0.00000000E+00  0.00000000E+00
  0.00000000E+00  0.00000000E+00  0.00000000E+00
  0.00000000E+00  0.00000000E+00  0.00000000E+00
  0.00000000E+00  0.00000000E+00  0.00000000E+00
  0.00000000E+00  0.00000000E+00  0.00000000E+00
  0.00000000E+00  0.00000000E+00  0.00000000E+00
  0.00000000E+00  0.00000000E+00  0.00000000E+00
  0.00000000E+00  0.00000000E+00  0.00000000E+00
  0.00000000E+00  0.00000000E+00  0.00000000E+00
  0.00000000E+00  0.00000000E+00  0.00000000E+00
  0.00000000E+00  0.00000000E+00  0.00000000E+00
  0.00000000E+00  0.00000000E+00  0.00000000E+00
  0.00000000E+00  0.00000000E+00  0.00000000E+00
  0.00000000E+00  0.00000000E+00  0.00000000E+00
  0.00000000E+00  0.00000000E+00  0.00000000E+00
  0.00000000E+00  0.00000000E+00  0.00000000E+00
  0.00000000E+00  0.00000000E+00  0.00000000E+00
  0.00000000E+00  0.00000000E+00  0.00000000E+00
  0.00000000E+00  0.00000000E+00  0.00000000E+00
  0.00000000E+00  0.00000000E+00  0.00000000E+00
  0.00000000E+00  0.00000000E+00  0.00000000E+00
  0.00000000E+00  0.00000000E+00  0.00000000E+00
  0.00000000E+00  0.00000000E+00  0.00000000E+00
  0.00000000E+00  0.00000000E+00  0.00000000E+00
  0.00000000E+00  0.00000000E+00  0.00000000E+00
  0.00000000E+00  0.00000000E+00  0.00000000E+00
  0.00000000E+00  0.00000000E+00  0.00000000E+00
  0.00000000E+00  0.00000000E+00  0.00000000E+00
