benzene
1.0
       20.0000000000         0.0000000000         0.0000000000
        0.0000000000        20.0000000000         0.0000000000
        0.0000000000         0.0000000000        20.0000000000
    C    H
    6    6
Direct
     0.204200000         0.301160008         0.166639999
     0.163550004         0.167390004         0.168359995
     0.154980004         0.278890014         0.122290000
     0.212770000         0.189659998         0.212709993
     0.233250007         0.256469995         0.211879998
     0.134499997         0.212080002         0.123120002
     0.219909996         0.353370011         0.165879995
     0.147839993         0.115180001         0.169119999
     0.132579997         0.313479990         0.086690001
     0.235170007         0.155070007         0.248310000
     0.271919996         0.273189992         0.246509999
     0.095830001         0.195360005         0.088490002
