C2                                      
  0.879365934000000     
     4.8699998856000013    0.0000000000000000    0.0000000000000000
     0.0000000000000000    6.4600000380999996    0.0000000000000000
     0.0000000000000000    0.0000000000000000    4.1400000953999996
   C    H 
     4     8
Direct
  0.8719054949902373  0.0610378919545879  0.9600619904857638
  0.1280945200097678  0.9389620930454073  0.0399379835142342
  0.6280945050097627  0.5610379069545927  0.5399380095142362
  0.3719054949902370  0.4389620930454072  0.4600620204857662
  0.7826793475956751  0.1984030390319844  0.1407803760034258
  0.2173206374043200  0.8015969749680167  0.8592196319965749
  0.7173206524043249  0.6984030250319833  0.3592196319965750
  0.2826793475956753  0.3015969749680169  0.6407803680034251
  0.7407100170709515  0.0285590102881581  0.7093964321630546
  0.2592899529290461  0.9714409957118424  0.2906035378369429
  0.7592899829290485  0.5285590042881576  0.7906035678369454
  0.2407100470709539  0.4714409957118426  0.2093964621630571
 
  0.00000000E+00  0.00000000E+00  0.00000000E+00
  0.00000000E+00  0.00000000E+00  0.00000000E+00
  0.00000000E+00  0.00000000E+00  0.00000000E+00
  0.00000000E+00  0.00000000E+00  0.00000000E+00
  0.00000000E+00  0.00000000E+00  0.00000000E+00
  0.00000000E+00  0.00000000E+00  0.00000000E+00
  0.00000000E+00  0.00000000E+00  0.00000000E+00
  0.00000000E+00  0.00000000E+00  0.00000000E+00
  0.00000000E+00  0.00000000E+00  0.00000000E+00
  0.00000000E+00  0.00000000E+00  0.00000000E+00
  0.00000000E+00  0.00000000E+00  0.00000000E+00
  0.00000000E+00  0.00000000E+00  0.00000000E+00
