CIF file                                
   1.00000000000000     
     2.4661411108786422    0.0029395190993480    0.0000000000000000
    -1.2305248571743250    2.1372106108455267    0.0000000000000000
     0.0000000000000000    0.0000000000000000    8.4254568370000005
   C 
     4
Direct
  0.9995298808672476  0.0004701654723602  0.2500000000000000
  0.0004701654723602  0.9995298808672476  0.7500000000000000
  0.3329071952009946  0.6670927874593965  0.2500000000000000
  0.6670927874593965  0.3329071952009946  0.7500000000000000
 
  0.00000000E+00  0.00000000E+00  0.00000000E+00
  0.00000000E+00  0.00000000E+00  0.00000000E+00
  0.00000000E+00  0.00000000E+00  0.00000000E+00
  0.00000000E+00  0.00000000E+00  0.00000000E+00
