CIF file                                
   1.00000000000000     
     2.4671554423831878   -0.0001112000195529    0.0000000000000000
    -1.2336740231833048    2.1365636881370342    0.0000000000000000
     0.0000000000000000    0.0000000000000000    5.0443067340000001
   C 
     4
Direct
  0.9999996971668352  0.0000003491727725  0.2500000000000000
  0.0000003491727725  0.9999996971668352  0.7500000000000000
  0.3332989299567188  0.6667010527036723  0.2500000000000000
  0.6667010527036723  0.3332989299567188  0.7500000000000000
 
  0.00000000E+00  0.00000000E+00  0.00000000E+00
  0.00000000E+00  0.00000000E+00  0.00000000E+00
  0.00000000E+00  0.00000000E+00  0.00000000E+00
  0.00000000E+00  0.00000000E+00  0.00000000E+00
