methane-low                             
   1.01315940400000     
    11.7079000473000008    0.0000000000000000    0.0000000000000000
     0.0000000000000000    8.1892995834000004    0.0000000000000000
     0.0000000000000000    0.0000000000000000    8.1842002868999995
   H    C 
    64    16
Direct
  0.0755887286614577  0.8170941190921108  0.1675855647166352
  0.9244112933385371  0.1829058809078892  0.8324144642833636
  0.9244112933385371  0.6829058809078892  0.6675855357166364
  0.0755887286614577  0.3170941190921109  0.3324144352833648
  0.9244112933385371  0.3170941190921109  0.3324144352833648
  0.0755887286614577  0.6829058809078892  0.6675855357166364
  0.0755887286614577  0.1829058809078892  0.8324144642833636
  0.9244112933385371  0.8170941190921108  0.1675855647166352
  0.5755887066614629  0.3170941190921109  0.1675855647166352
  0.4244112643385382  0.6829058809078892  0.8324144642833636
  0.4244112643385382  0.1829058809078892  0.6675855357166364
  0.5755887066614629  0.8170941190921108  0.3324144352833648
  0.4244112643385382  0.8170941190921108  0.3324144352833648
  0.5755887066614629  0.1829058809078892  0.6675855357166364
  0.5755887066614629  0.6829058809078892  0.8324144642833636
  0.4244112643385382  0.3170941190921109  0.1675855647166352
  0.8146792673687732  0.5843499415168228  0.9329979639630189
  0.1853207326312269  0.4156500584831772  0.0670020360369810
  0.1853207326312269  0.9156500584831772  0.4329979639630189
  0.8146792673687732  0.0843499415168228  0.5670020360369811
  0.1853207326312269  0.0843499415168228  0.5670020360369811
  0.8146792673687732  0.9156500584831772  0.4329979639630189
  0.8146792673687732  0.4156500584831772  0.0670020360369810
  0.1853207326312269  0.5843499415168228  0.9329979639630189
  0.3146792673687731  0.0843499415168228  0.9329979639630189
  0.6853207326312268  0.9156500584831772  0.0670020360369810
  0.6853207326312268  0.4156500584831772  0.4329979639630189
  0.3146792673687731  0.5843499415168228  0.5670020360369811
  0.6853207326312268  0.5843499415168228  0.5670020360369811
  0.3146792673687731  0.4156500584831772  0.4329979639630189
  0.3146792673687731  0.9156500584831772  0.0670020360369810
  0.6853207326312268  0.0843499415168228  0.9329979639630189
  0.7079696865370181  0.5673241056704861  0.0842729882302885
  0.2920303134629819  0.4326758943295140  0.9157270117697115
  0.2920303134629819  0.9326758943295139  0.5842729882302885
  0.7079696865370181  0.0673241056704860  0.4157270117697115
  0.2920303134629819  0.0673241056704860  0.4157270117697115
  0.7079696865370181  0.9326758943295139  0.5842729882302885
  0.7079696865370181  0.4326758943295140  0.9157270117697115
  0.2920303134629819  0.5673241056704861  0.0842729882302885
  0.2079696865370181  0.0673241056704860  0.0842729882302885
  0.7920303134629819  0.9326758943295139  0.9157270117697115
  0.7920303134629819  0.4326758943295140  0.5842729882302885
  0.2079696865370181  0.5673241056704861  0.4157270117697115
  0.7920303134629819  0.5673241056704861  0.4157270117697115
  0.2079696865370181  0.4326758943295140  0.5842729882302885
  0.2079696865370181  0.9326758943295139  0.9157270117697115
  0.7920303134629819  0.0673241056704860  0.0842729882302885
 -0.0000000000000000  0.6310568516982001  0.1495896391713814
 -0.0000000000000000  0.3689431483017999  0.8504103308286162
 -0.0000000000000000  0.8689431483017999  0.6495896691713838
 -0.0000000000000000  0.1310568516982001  0.3504103608286186
  0.5000000000000000  0.1310568516982001  0.1495896391713814
  0.5000000000000000  0.8689431483017999  0.8504103308286162
  0.5000000000000000  0.3689431483017999  0.6495896691713838
  0.5000000000000000  0.6310568516982001  0.3504103608286186
 -0.0000000000000000  0.2724043064212111  0.5131794180238474
 -0.0000000000000000  0.7275956935787889  0.4868205819761527
 -0.0000000000000000  0.2275956935787889  0.0131794180238474
 -0.0000000000000000  0.7724043064212111  0.9868205819761526
  0.5000000000000000  0.7724043064212111  0.5131794180238474
  0.5000000000000000  0.2275956935787889  0.4868205819761527
  0.5000000000000000  0.7275956935787889  0.0131794180238474
  0.5000000000000000  0.2724043064212111  0.9868205819761526
 -0.0000000000000000  0.2594000605915350  0.3816544803451875
 -0.0000000000000000  0.7405999394084650  0.6183455046548149
 -0.0000000000000000  0.2405999394084650  0.8816544953451851
 -0.0000000000000000  0.7594000605915350  0.1183455046548149
  0.5000000000000000  0.7594000605915350  0.3816544803451875
  0.5000000000000000  0.2405999394084650  0.6183455046548149
  0.5000000000000000  0.7405999394084650  0.8816544953451851
  0.5000000000000000  0.2594000605915350  0.1183455046548149
  0.7612741774094102  0.5000000000000000 -0.0000000000000000
  0.2387258225905899  0.5000000000000000 -0.0000000000000000
  0.2387258225905899  0.0000000000000000  0.5000000000000000
  0.7612741774094102  0.0000000000000000  0.5000000000000000
  0.2612741774094101  0.0000000000000000 -0.0000000000000000
  0.7387258225905898  0.0000000000000000 -0.0000000000000000
  0.7387258225905898  0.5000000000000000  0.5000000000000000
  0.2612741774094101  0.5000000000000000  0.5000000000000000
 
  0.00000000E+00  0.00000000E+00  0.00000000E+00
  0.00000000E+00  0.00000000E+00  0.00000000E+00
  0.00000000E+00  0.00000000E+00  0.00000000E+00
  0.00000000E+00  0.00000000E+00  0.00000000E+00
  0.00000000E+00  0.00000000E+00  0.00000000E+00
  0.00000000E+00  0.00000000E+00  0.00000000E+00
  0.00000000E+00  0.00000000E+00  0.00000000E+00
  0.00000000E+00  0.00000000E+00  0.00000000E+00
  0.00000000E+00  0.00000000E+00  0.00000000E+00
  0.00000000E+00  0.00000000E+00  0.00000000E+00
  0.00000000E+00  0.00000000E+00  0.00000000E+00
  0.00000000E+00  0.00000000E+00  0.00000000E+00
  0.00000000E+00  0.00000000E+00  0.00000000E+00
  0.00000000E+00  0.00000000E+00  0.00000000E+00
  0.00000000E+00  0.00000000E+00  0.00000000E+00
  0.00000000E+00  0.00000000E+00  0.00000000E+00
  0.00000000E+00  0.00000000E+00  0.00000000E+00
  0.00000000E+00  0.00000000E+00  0.00000000E+00
  0.00000000E+00  0.00000000E+00  0.00000000E+00
  0.00000000E+00  0.00000000E+00  0.00000000E+00
  0.00000000E+00  0.00000000E+00  0.00000000E+00
  0.00000000E+00  0.00000000E+00  0.00000000E+00
  0.00000000E+00  0.00000000E+00  0.00000000E+00
  0.00000000E+00  0.00000000E+00  0.00000000E+00
  0.00000000E+00  0.00000000E+00  0.00000000E+00
  0.00000000E+00  0.00000000E+00  0.00000000E+00
  0.00000000E+00  0.00000000E+00  0.00000000E+00
  0.00000000E+00  0.00000000E+00  0.00000000E+00
  0.00000000E+00  0.00000000E+00  0.00000000E+00
  0.00000000E+00  0.00000000E+00  0.00000000E+00
  0.00000000E+00  0.00000000E+00  0.00000000E+00
  0.00000000E+00  0.00000000E+00  0.00000000E+00
  0.00000000E+00  0.00000000E+00  0.00000000E+00
  0.00000000E+00  0.00000000E+00  0.00000000E+00
  0.00000000E+00  0.00000000E+00  0.00000000E+00
  0.00000000E+00  0.00000000E+00  0.00000000E+00
  0.00000000E+00  0.00000000E+00  0.00000000E+00
  0.00000000E+00  0.00000000E+00  0.00000000E+00
  0.00000000E+00  0.00000000E+00  0.00000000E+00
  0.00000000E+00  0.00000000E+00  0.00000000E+00
  0.00000000E+00  0.00000000E+00  0.00000000E+00
  0.00000000E+00  0.00000000E+00  0.00000000E+00
  0.00000000E+00  0.00000000E+00  0.00000000E+00
  0.00000000E+00  0.00000000E+00  0.00000000E+00
  0.00000000E+00  0.00000000E+00  0.00000000E+00
  0.00000000E+00  0.00000000E+00  0.00000000E+00
  0.00000000E+00  0.00000000E+00  0.00000000E+00
  0.00000000E+00  0.00000000E+00  0.00000000E+00
  0.00000000E+00  0.00000000E+00  0.00000000E+00
  0.00000000E+00  0.00000000E+00  0.00000000E+00
  0.00000000E+00  0.00000000E+00  0.00000000E+00
  0.00000000E+00  0.00000000E+00  0.00000000E+00
  0.00000000E+00  0.00000000E+00  0.00000000E+00
  0.00000000E+00  0.00000000E+00  0.00000000E+00
  0.00000000E+00  0.00000000E+00  0.00000000E+00
  0.00000000E+00  0.00000000E+00  0.00000000E+00
  0.00000000E+00  0.00000000E+00  0.00000000E+00
  0.00000000E+00  0.00000000E+00  0.00000000E+00
  0.00000000E+00  0.00000000E+00  0.00000000E+00
  0.00000000E+00  0.00000000E+00  0.00000000E+00
  0.00000000E+00  0.00000000E+00  0.00000000E+00
  0.00000000E+00  0.00000000E+00  0.00000000E+00
  0.00000000E+00  0.00000000E+00  0.00000000E+00
  0.00000000E+00  0.00000000E+00  0.00000000E+00
  0.00000000E+00  0.00000000E+00  0.00000000E+00
  0.00000000E+00  0.00000000E+00  0.00000000E+00
  0.00000000E+00  0.00000000E+00  0.00000000E+00
  0.00000000E+00  0.00000000E+00  0.00000000E+00
  0.00000000E+00  0.00000000E+00  0.00000000E+00
  0.00000000E+00  0.00000000E+00  0.00000000E+00
  0.00000000E+00  0.00000000E+00  0.00000000E+00
  0.00000000E+00  0.00000000E+00  0.00000000E+00
  0.00000000E+00  0.00000000E+00  0.00000000E+00
  0.00000000E+00  0.00000000E+00  0.00000000E+00
  0.00000000E+00  0.00000000E+00  0.00000000E+00
  0.00000000E+00  0.00000000E+00  0.00000000E+00
  0.00000000E+00  0.00000000E+00  0.00000000E+00
  0.00000000E+00  0.00000000E+00  0.00000000E+00
  0.00000000E+00  0.00000000E+00  0.00000000E+00
  0.00000000E+00  0.00000000E+00  0.00000000E+00
