methane-low                             
   1.01315940400000     
    11.7079000473000008    0.0000000000000000    0.0000000000000000
     0.0000000000000000    8.1892995834000004    0.0000000000000000
     0.0000000000000000    0.0000000000000000    8.1842002868999995
   H    C 
    64    16
Direct
  0.0755887286614365  0.8170941190920921  0.1675855647168321
  0.9244112933385582  0.1829058809079079  0.8324144642831667
  0.9244112933385582  0.6829058809079079  0.6675855357168333
  0.0755887286614365  0.3170941190920921  0.3324144352831679
  0.9244112933385582  0.3170941190920921  0.3324144352831679
  0.0755887286614365  0.6829058809079079  0.6675855357168333
  0.0755887286614365  0.1829058809079079  0.8324144642831667
  0.9244112933385582  0.8170941190920921  0.1675855647168321
  0.5755887066614418  0.3170941190920921  0.1675855647168321
  0.4244112643385594  0.6829058809079079  0.8324144642831667
  0.4244112643385594  0.1829058809079079  0.6675855357168333
  0.5755887066614418  0.8170941190920921  0.3324144352831679
  0.4244112643385594  0.8170941190920921  0.3324144352831679
  0.5755887066614418  0.1829058809079079  0.6675855357168333
  0.5755887066614418  0.6829058809079079  0.8324144642831667
  0.4244112643385594  0.3170941190920921  0.1675855647168321
  0.8146792673687949  0.5843499415168745  0.9329979639629625
  0.1853207326312051  0.4156500584831255  0.0670020360370374
  0.1853207326312051  0.9156500584831255  0.4329979639629626
  0.8146792673687949  0.0843499415168745  0.5670020360370375
  0.1853207326312051  0.0843499415168745  0.5670020360370375
  0.8146792673687949  0.9156500584831255  0.4329979639629626
  0.8146792673687949  0.4156500584831255  0.0670020360370374
  0.1853207326312051  0.5843499415168745  0.9329979639629625
  0.3146792673687950  0.0843499415168745  0.9329979639629625
  0.6853207326312051  0.9156500584831255  0.0670020360370374
  0.6853207326312051  0.4156500584831255  0.4329979639629626
  0.3146792673687950  0.5843499415168745  0.5670020360370375
  0.6853207326312051  0.5843499415168745  0.5670020360370375
  0.3146792673687950  0.4156500584831255  0.4329979639629626
  0.3146792673687950  0.9156500584831255  0.0670020360370374
  0.6853207326312051  0.0843499415168745  0.9329979639629625
  0.7079696865369532  0.5673241056705667  0.0842729882303638
  0.2920303134630468  0.4326758943294333  0.9157270117696362
  0.2920303134630468  0.9326758943294333  0.5842729882303638
  0.7079696865369532  0.0673241056705667  0.4157270117696363
  0.2920303134630468  0.0673241056705667  0.4157270117696363
  0.7079696865369532  0.9326758943294333  0.5842729882303638
  0.7079696865369532  0.4326758943294333  0.9157270117696362
  0.2920303134630468  0.5673241056705667  0.0842729882303638
  0.2079696865369532  0.0673241056705667  0.0842729882303638
  0.7920303134630468  0.9326758943294333  0.9157270117696362
  0.7920303134630468  0.4326758943294333  0.5842729882303638
  0.2079696865369532  0.5673241056705667  0.4157270117696363
  0.7920303134630468  0.5673241056705667  0.4157270117696363
  0.2079696865369532  0.4326758943294333  0.5842729882303638
  0.2079696865369532  0.9326758943294333  0.9157270117696362
  0.7920303134630468  0.0673241056705667  0.0842729882303638
 -0.0000000000000000  0.6310568516982267  0.1495896391715223
 -0.0000000000000000  0.3689431483017734  0.8504103308284753
 -0.0000000000000000  0.8689431483017733  0.6495896691715247
 -0.0000000000000000  0.1310568516982266  0.3504103608284777
  0.5000000000000000  0.1310568516982266  0.1495896391715223
  0.5000000000000000  0.8689431483017733  0.8504103308284753
  0.5000000000000000  0.3689431483017734  0.6495896691715247
  0.5000000000000000  0.6310568516982267  0.3504103608284777
 -0.0000000000000000  0.2724043064212089  0.5131794180234797
 -0.0000000000000000  0.7275956935787912  0.4868205819765203
 -0.0000000000000000  0.2275956935787911  0.0131794180234797
 -0.0000000000000000  0.7724043064212088  0.9868205819765203
  0.5000000000000000  0.7724043064212088  0.5131794180234797
  0.5000000000000000  0.2275956935787911  0.4868205819765203
  0.5000000000000000  0.7275956935787912  0.0131794180234797
  0.5000000000000000  0.2724043064212089  0.9868205819765203
 -0.0000000000000000  0.2594000605915061  0.3816544803451519
 -0.0000000000000000  0.7405999394084939  0.6183455046548504
 -0.0000000000000000  0.2405999394084939  0.8816544953451496
 -0.0000000000000000  0.7594000605915061  0.1183455046548504
  0.5000000000000000  0.7594000605915061  0.3816544803451519
  0.5000000000000000  0.2405999394084939  0.6183455046548504
  0.5000000000000000  0.7405999394084939  0.8816544953451496
  0.5000000000000000  0.2594000605915061  0.1183455046548504
  0.7612741774095146  0.5000000000000000  0.0000000000000000
  0.2387258225904854  0.5000000000000000 -0.0000000000000000
  0.2387258225904854  0.0000000000000000  0.5000000000000000
  0.7612741774095146  0.0000000000000000  0.5000000000000000
  0.2612741774095146  0.0000000000000000  0.0000000000000000
  0.7387258225904854  0.0000000000000000 -0.0000000000000000
  0.7387258225904854  0.5000000000000000  0.5000000000000000
  0.2612741774095146  0.5000000000000000  0.5000000000000000
 
  0.00000000E+00  0.00000000E+00  0.00000000E+00
  0.00000000E+00  0.00000000E+00  0.00000000E+00
  0.00000000E+00  0.00000000E+00  0.00000000E+00
  0.00000000E+00  0.00000000E+00  0.00000000E+00
  0.00000000E+00  0.00000000E+00  0.00000000E+00
  0.00000000E+00  0.00000000E+00  0.00000000E+00
  0.00000000E+00  0.00000000E+00  0.00000000E+00
  0.00000000E+00  0.00000000E+00  0.00000000E+00
  0.00000000E+00  0.00000000E+00  0.00000000E+00
  0.00000000E+00  0.00000000E+00  0.00000000E+00
  0.00000000E+00  0.00000000E+00  0.00000000E+00
  0.00000000E+00  0.00000000E+00  0.00000000E+00
  0.00000000E+00  0.00000000E+00  0.00000000E+00
  0.00000000E+00  0.00000000E+00  0.00000000E+00
  0.00000000E+00  0.00000000E+00  0.00000000E+00
  0.00000000E+00  0.00000000E+00  0.00000000E+00
  0.00000000E+00  0.00000000E+00  0.00000000E+00
  0.00000000E+00  0.00000000E+00  0.00000000E+00
  0.00000000E+00  0.00000000E+00  0.00000000E+00
  0.00000000E+00  0.00000000E+00  0.00000000E+00
  0.00000000E+00  0.00000000E+00  0.00000000E+00
  0.00000000E+00  0.00000000E+00  0.00000000E+00
  0.00000000E+00  0.00000000E+00  0.00000000E+00
  0.00000000E+00  0.00000000E+00  0.00000000E+00
  0.00000000E+00  0.00000000E+00  0.00000000E+00
  0.00000000E+00  0.00000000E+00  0.00000000E+00
  0.00000000E+00  0.00000000E+00  0.00000000E+00
  0.00000000E+00  0.00000000E+00  0.00000000E+00
  0.00000000E+00  0.00000000E+00  0.00000000E+00
  0.00000000E+00  0.00000000E+00  0.00000000E+00
  0.00000000E+00  0.00000000E+00  0.00000000E+00
  0.00000000E+00  0.00000000E+00  0.00000000E+00
  0.00000000E+00  0.00000000E+00  0.00000000E+00
  0.00000000E+00  0.00000000E+00  0.00000000E+00
  0.00000000E+00  0.00000000E+00  0.00000000E+00
  0.00000000E+00  0.00000000E+00  0.00000000E+00
  0.00000000E+00  0.00000000E+00  0.00000000E+00
  0.00000000E+00  0.00000000E+00  0.00000000E+00
  0.00000000E+00  0.00000000E+00  0.00000000E+00
  0.00000000E+00  0.00000000E+00  0.00000000E+00
  0.00000000E+00  0.00000000E+00  0.00000000E+00
  0.00000000E+00  0.00000000E+00  0.00000000E+00
  0.00000000E+00  0.00000000E+00  0.00000000E+00
  0.00000000E+00  0.00000000E+00  0.00000000E+00
  0.00000000E+00  0.00000000E+00  0.00000000E+00
  0.00000000E+00  0.00000000E+00  0.00000000E+00
  0.00000000E+00  0.00000000E+00  0.00000000E+00
  0.00000000E+00  0.00000000E+00  0.00000000E+00
  0.00000000E+00  0.00000000E+00  0.00000000E+00
  0.00000000E+00  0.00000000E+00  0.00000000E+00
  0.00000000E+00  0.00000000E+00  0.00000000E+00
  0.00000000E+00  0.00000000E+00  0.00000000E+00
  0.00000000E+00  0.00000000E+00  0.00000000E+00
  0.00000000E+00  0.00000000E+00  0.00000000E+00
  0.00000000E+00  0.00000000E+00  0.00000000E+00
  0.00000000E+00  0.00000000E+00  0.00000000E+00
  0.00000000E+00  0.00000000E+00  0.00000000E+00
  0.00000000E+00  0.00000000E+00  0.00000000E+00
  0.00000000E+00  0.00000000E+00  0.00000000E+00
  0.00000000E+00  0.00000000E+00  0.00000000E+00
  0.00000000E+00  0.00000000E+00  0.00000000E+00
  0.00000000E+00  0.00000000E+00  0.00000000E+00
  0.00000000E+00  0.00000000E+00  0.00000000E+00
  0.00000000E+00  0.00000000E+00  0.00000000E+00
  0.00000000E+00  0.00000000E+00  0.00000000E+00
  0.00000000E+00  0.00000000E+00  0.00000000E+00
  0.00000000E+00  0.00000000E+00  0.00000000E+00
  0.00000000E+00  0.00000000E+00  0.00000000E+00
  0.00000000E+00  0.00000000E+00  0.00000000E+00
  0.00000000E+00  0.00000000E+00  0.00000000E+00
  0.00000000E+00  0.00000000E+00  0.00000000E+00
  0.00000000E+00  0.00000000E+00  0.00000000E+00
  0.00000000E+00  0.00000000E+00  0.00000000E+00
  0.00000000E+00  0.00000000E+00  0.00000000E+00
  0.00000000E+00  0.00000000E+00  0.00000000E+00
  0.00000000E+00  0.00000000E+00  0.00000000E+00
  0.00000000E+00  0.00000000E+00  0.00000000E+00
  0.00000000E+00  0.00000000E+00  0.00000000E+00
  0.00000000E+00  0.00000000E+00  0.00000000E+00
  0.00000000E+00  0.00000000E+00  0.00000000E+00
