methane-low                             
   1.01315940400000     
    11.7079000473000008    0.0000000000000000    0.0000000000000000
     0.0000000000000000    8.1892995834000004    0.0000000000000000
     0.0000000000000000    0.0000000000000000    8.1842002868999995
   H    C 
    64    16
Direct
  0.0755951896056746  0.8170984975928942  0.1675529571745644
  0.9244048323943201  0.1829015024071058  0.8324470718254345
  0.9244048323943201  0.6829015024071058  0.6675529281745655
  0.0755951896056746  0.3170984975928942  0.3324470428254357
  0.9244048323943201  0.3170984975928942  0.3324470428254357
  0.0755951896056746  0.6829015024071058  0.6675529281745655
  0.0755951896056746  0.1829015024071058  0.8324470718254345
  0.9244048323943201  0.8170984975928942  0.1675529571745644
  0.5755951676056799  0.3170984975928942  0.1675529571745644
  0.4244048033943213  0.6829015024071058  0.8324470718254345
  0.4244048033943213  0.1829015024071058  0.6675529281745655
  0.5755951676056799  0.8170984975928942  0.3324470428254357
  0.4244048033943213  0.8170984975928942  0.3324470428254357
  0.5755951676056799  0.1829015024071058  0.6675529281745655
  0.5755951676056799  0.6829015024071058  0.8324470718254345
  0.4244048033943213  0.3170984975928942  0.1675529571745644
  0.8146832598145218  0.5843514313414423  0.9329993283917106
  0.1853167401854782  0.4156485686585578  0.0670006716082893
  0.1853167401854782  0.9156485686585577  0.4329993283917107
  0.8146832598145218  0.0843514313414422  0.5670006716082894
  0.1853167401854782  0.0843514313414422  0.5670006716082894
  0.8146832598145218  0.9156485686585577  0.4329993283917107
  0.8146832598145218  0.4156485686585578  0.0670006716082893
  0.1853167401854782  0.5843514313414423  0.9329993283917106
  0.3146832598145218  0.0843514313414422  0.9329993283917106
  0.6853167401854782  0.9156485686585577  0.0670006716082893
  0.6853167401854782  0.4156485686585578  0.4329993283917107
  0.3146832598145218  0.5843514313414423  0.5670006716082894
  0.6853167401854782  0.5843514313414423  0.5670006716082894
  0.3146832598145218  0.4156485686585578  0.4329993283917107
  0.3146832598145218  0.9156485686585577  0.0670006716082893
  0.6853167401854782  0.0843514313414422  0.9329993283917106
  0.7079727465580445  0.5673194172097153  0.0842748499958516
  0.2920272534419555  0.4326805827902846  0.9157251500041484
  0.2920272534419555  0.9326805827902847  0.5842748499958516
  0.7079727465580445  0.0673194172097154  0.4157251500041483
  0.2920272534419555  0.0673194172097154  0.4157251500041483
  0.7079727465580445  0.9326805827902847  0.5842748499958516
  0.7079727465580445  0.4326805827902846  0.9157251500041484
  0.2920272534419555  0.5673194172097153  0.0842748499958516
  0.2079727465580445  0.0673194172097154  0.0842748499958516
  0.7920272534419555  0.9326805827902847  0.9157251500041484
  0.7920272534419555  0.4326805827902846  0.5842748499958516
  0.2079727465580445  0.5673194172097153  0.4157251500041483
  0.7920272534419555  0.5673194172097153  0.4157251500041483
  0.2079727465580445  0.4326805827902846  0.5842748499958516
  0.2079727465580445  0.9326805827902847  0.9157251500041484
  0.7920272534419555  0.0673194172097154  0.0842748499958516
  0.0000000000000000  0.6311024559003692  0.1495524228008685
  0.0000000000000000  0.3688975440996307  0.8504475471991290
  0.0000000000000000  0.8688975440996308  0.6495524528008710
  0.0000000000000000  0.1311024559003692  0.3504475771991315
  0.5000000000000000  0.1311024559003692  0.1495524228008685
  0.5000000000000000  0.8688975440996308  0.8504475471991290
  0.5000000000000000  0.3688975440996307  0.6495524528008710
  0.5000000000000000  0.6311024559003692  0.3504475771991315
  0.0000000000000000  0.2724060044165095  0.5132387916651151
  0.0000000000000000  0.7275939955834905  0.4867612083348850
  0.0000000000000000  0.2275939955834906  0.0132387916651151
  0.0000000000000000  0.7724060044165095  0.9867612083348849
  0.5000000000000000  0.7724060044165095  0.5132387916651151
  0.5000000000000000  0.2275939955834906  0.4867612083348850
  0.5000000000000000  0.7275939955834905  0.0132387916651151
  0.5000000000000000  0.2724060044165095  0.9867612083348849
  0.0000000000000000  0.2593447397929985  0.3816584523253918
  0.0000000000000000  0.7406552602070015  0.6183415326746105
  0.0000000000000000  0.2406552602070015  0.8816584673253895
  0.0000000000000000  0.7593447397929985  0.1183415326746105
  0.5000000000000000  0.7593447397929985  0.3816584523253918
  0.5000000000000000  0.2406552602070015  0.6183415326746105
  0.5000000000000000  0.7406552602070015  0.8816584673253895
  0.5000000000000000  0.2593447397929985  0.1183415326746105
  0.7612757878552022  0.5000000000000000  0.0000000000000000
  0.2387242121447979  0.5000000000000000  0.0000000000000000
  0.2387242121447979  0.0000000000000000  0.5000000000000000
  0.7612757878552022  0.0000000000000000  0.5000000000000000
  0.2612757878552021  0.0000000000000000  0.0000000000000000
  0.7387242121447978  0.0000000000000000  0.0000000000000000
  0.7387242121447978  0.5000000000000000  0.5000000000000000
  0.2612757878552021  0.5000000000000000  0.5000000000000000
 
  0.00000000E+00  0.00000000E+00  0.00000000E+00
  0.00000000E+00  0.00000000E+00  0.00000000E+00
  0.00000000E+00  0.00000000E+00  0.00000000E+00
  0.00000000E+00  0.00000000E+00  0.00000000E+00
  0.00000000E+00  0.00000000E+00  0.00000000E+00
  0.00000000E+00  0.00000000E+00  0.00000000E+00
  0.00000000E+00  0.00000000E+00  0.00000000E+00
  0.00000000E+00  0.00000000E+00  0.00000000E+00
  0.00000000E+00  0.00000000E+00  0.00000000E+00
  0.00000000E+00  0.00000000E+00  0.00000000E+00
  0.00000000E+00  0.00000000E+00  0.00000000E+00
  0.00000000E+00  0.00000000E+00  0.00000000E+00
  0.00000000E+00  0.00000000E+00  0.00000000E+00
  0.00000000E+00  0.00000000E+00  0.00000000E+00
  0.00000000E+00  0.00000000E+00  0.00000000E+00
  0.00000000E+00  0.00000000E+00  0.00000000E+00
  0.00000000E+00  0.00000000E+00  0.00000000E+00
  0.00000000E+00  0.00000000E+00  0.00000000E+00
  0.00000000E+00  0.00000000E+00  0.00000000E+00
  0.00000000E+00  0.00000000E+00  0.00000000E+00
  0.00000000E+00  0.00000000E+00  0.00000000E+00
  0.00000000E+00  0.00000000E+00  0.00000000E+00
  0.00000000E+00  0.00000000E+00  0.00000000E+00
  0.00000000E+00  0.00000000E+00  0.00000000E+00
  0.00000000E+00  0.00000000E+00  0.00000000E+00
  0.00000000E+00  0.00000000E+00  0.00000000E+00
  0.00000000E+00  0.00000000E+00  0.00000000E+00
  0.00000000E+00  0.00000000E+00  0.00000000E+00
  0.00000000E+00  0.00000000E+00  0.00000000E+00
  0.00000000E+00  0.00000000E+00  0.00000000E+00
  0.00000000E+00  0.00000000E+00  0.00000000E+00
  0.00000000E+00  0.00000000E+00  0.00000000E+00
  0.00000000E+00  0.00000000E+00  0.00000000E+00
  0.00000000E+00  0.00000000E+00  0.00000000E+00
  0.00000000E+00  0.00000000E+00  0.00000000E+00
  0.00000000E+00  0.00000000E+00  0.00000000E+00
  0.00000000E+00  0.00000000E+00  0.00000000E+00
  0.00000000E+00  0.00000000E+00  0.00000000E+00
  0.00000000E+00  0.00000000E+00  0.00000000E+00
  0.00000000E+00  0.00000000E+00  0.00000000E+00
  0.00000000E+00  0.00000000E+00  0.00000000E+00
  0.00000000E+00  0.00000000E+00  0.00000000E+00
  0.00000000E+00  0.00000000E+00  0.00000000E+00
  0.00000000E+00  0.00000000E+00  0.00000000E+00
  0.00000000E+00  0.00000000E+00  0.00000000E+00
  0.00000000E+00  0.00000000E+00  0.00000000E+00
  0.00000000E+00  0.00000000E+00  0.00000000E+00
  0.00000000E+00  0.00000000E+00  0.00000000E+00
  0.00000000E+00  0.00000000E+00  0.00000000E+00
  0.00000000E+00  0.00000000E+00  0.00000000E+00
  0.00000000E+00  0.00000000E+00  0.00000000E+00
  0.00000000E+00  0.00000000E+00  0.00000000E+00
  0.00000000E+00  0.00000000E+00  0.00000000E+00
  0.00000000E+00  0.00000000E+00  0.00000000E+00
  0.00000000E+00  0.00000000E+00  0.00000000E+00
  0.00000000E+00  0.00000000E+00  0.00000000E+00
  0.00000000E+00  0.00000000E+00  0.00000000E+00
  0.00000000E+00  0.00000000E+00  0.00000000E+00
  0.00000000E+00  0.00000000E+00  0.00000000E+00
  0.00000000E+00  0.00000000E+00  0.00000000E+00
  0.00000000E+00  0.00000000E+00  0.00000000E+00
  0.00000000E+00  0.00000000E+00  0.00000000E+00
  0.00000000E+00  0.00000000E+00  0.00000000E+00
  0.00000000E+00  0.00000000E+00  0.00000000E+00
  0.00000000E+00  0.00000000E+00  0.00000000E+00
  0.00000000E+00  0.00000000E+00  0.00000000E+00
  0.00000000E+00  0.00000000E+00  0.00000000E+00
  0.00000000E+00  0.00000000E+00  0.00000000E+00
  0.00000000E+00  0.00000000E+00  0.00000000E+00
  0.00000000E+00  0.00000000E+00  0.00000000E+00
  0.00000000E+00  0.00000000E+00  0.00000000E+00
  0.00000000E+00  0.00000000E+00  0.00000000E+00
  0.00000000E+00  0.00000000E+00  0.00000000E+00
  0.00000000E+00  0.00000000E+00  0.00000000E+00
  0.00000000E+00  0.00000000E+00  0.00000000E+00
  0.00000000E+00  0.00000000E+00  0.00000000E+00
  0.00000000E+00  0.00000000E+00  0.00000000E+00
  0.00000000E+00  0.00000000E+00  0.00000000E+00
  0.00000000E+00  0.00000000E+00  0.00000000E+00
  0.00000000E+00  0.00000000E+00  0.00000000E+00
