methane-low                             
   1.01315940400000     
    11.7079000473000008    0.0000000000000000    0.0000000000000000
     0.0000000000000000    8.1892995834000004    0.0000000000000000
     0.0000000000000000    0.0000000000000000    8.1842002868999995
   H    C 
    64    16
Direct
  0.0756040456665964  0.8170927339865097  0.1674815285663834
  0.9243959763333984  0.1829072660134904  0.8325185004336154
  0.9243959763333984  0.6829072660134903  0.6674814995663846
  0.0756040456665964  0.3170927339865096  0.3325184714336167
  0.9243959763333984  0.3170927339865096  0.3325184714336166
  0.0756040456665964  0.6829072660134903  0.6674814995663846
  0.0756040456665964  0.1829072660134904  0.8325185004336154
  0.9243959763333984  0.8170927339865097  0.1674815285663834
  0.5756040236666016  0.3170927339865096  0.1674815285663834
  0.4243959473333992  0.6829072660134903  0.8325185004336154
  0.4243959473333992  0.1829072660134904  0.6674814995663846
  0.5756040236666016  0.8170927339865097  0.3325184714336167
  0.4243959473333992  0.8170927339865097  0.3325184714336167
  0.5756040236666016  0.1829072660134904  0.6674814995663846
  0.5756040236666016  0.6829072660134903  0.8325185004336154
  0.4243959473333992  0.3170927339865096  0.1674815285663834
  0.8146910938315841  0.5843523317892305  0.9330025828126620
  0.1853089061684160  0.4156476682107696  0.0669974171873382
  0.1853089061684160  0.9156476682107695  0.4330025828126618
  0.8146910938315841  0.0843523317892304  0.5669974171873380
  0.1853089061684160  0.0843523317892304  0.5669974171873380
  0.8146910938315841  0.9156476682107695  0.4330025828126618
  0.8146910938315841  0.4156476682107696  0.0669974171873382
  0.1853089061684160  0.5843523317892305  0.9330025828126620
  0.3146910938315838  0.0843523317892304  0.9330025828126620
  0.6853089061684159  0.9156476682107695  0.0669974171873382
  0.6853089061684159  0.4156476682107696  0.4330025828126618
  0.3146910938315838  0.5843523317892305  0.5669974171873380
  0.6853089061684159  0.5843523317892305  0.5669974171873380
  0.3146910938315838  0.4156476682107696  0.4330025828126618
  0.3146910938315838  0.9156476682107695  0.0669974171873382
  0.6853089061684159  0.0843523317892304  0.9330025828126620
  0.7079783450161469  0.5673084324519720  0.0842799515376815
  0.2920216549838529  0.4326915675480280  0.9157200484623187
  0.2920216549838529  0.9326915675480280  0.5842799515376813
  0.7079783450161469  0.0673084324519719  0.4157200484623185
  0.2920216549838529  0.0673084324519719  0.4157200484623185
  0.7079783450161469  0.9326915675480280  0.5842799515376813
  0.7079783450161469  0.4326915675480280  0.9157200484623187
  0.2920216549838529  0.5673084324519720  0.0842799515376815
  0.2079783450161471  0.0673084324519719  0.0842799515376815
  0.7920216549838531  0.9326915675480280  0.9157200484623187
  0.7920216549838531  0.4326915675480280  0.5842799515376813
  0.2079783450161471  0.5673084324519720  0.4157200484623185
  0.7920216549838531  0.5673084324519720  0.4157200484623185
  0.2079783450161471  0.4326915675480280  0.5842799515376813
  0.2079783450161471  0.9326915675480280  0.9157200484623187
  0.7920216549838531  0.0673084324519719  0.0842799515376815
  0.0000000000000000  0.6311136940940476  0.1494983613310328
  0.0000000000000000  0.3688863059059520  0.8505016086689648
  0.0000000000000000  0.8688863059059524  0.6494983913310353
  0.0000000000000000  0.1311136940940476  0.3505016386689671
  0.5000000000000000  0.1311136940940476  0.1494983613310328
  0.5000000000000000  0.8688863059059524  0.8505016086689648
  0.5000000000000000  0.3688863059059520  0.6494983913310353
  0.5000000000000000  0.6311136940940476  0.3505016386689671
  0.0000000000000000  0.2723999174158799  0.5133262103908621
  0.0000000000000000  0.7276000825841200 -0.5133262103908621
  0.0000000000000000  0.2276000825841199  0.0133262103908623
  0.0000000000000000 -0.2276000825841199 -0.0133262103908623
  0.5000000000000000 -0.2276000825841198  0.5133262103908621
  0.5000000000000000  0.2276000825841197 -0.5133262103908620
  0.5000000000000000  0.7276000825841203  0.0133262103908623
  0.5000000000000000  0.2723999174158799 -0.0133262103908622
  0.0000000000000000  0.2593525315549253 -0.6182650407297502
  0.0000000000000000  0.7406474684450748  0.6182650257297526
  0.0000000000000000  0.2406474684450747 -0.1182650257297529
  0.0000000000000000 -0.2406474684450748  0.1182650257297528
  0.5000000000000000 -0.2406474684450748 -0.6182650407297502
  0.5000000000000000  0.2406474684450747  0.6182650257297526
  0.5000000000000000  0.7406474684450748 -0.1182650257297529
  0.5000000000000000  0.2593525315549253  0.1182650257297530
  0.7612831190197729  0.5000000000000000  0.0000000000000000
  0.2387168809802269  0.5000000000000000  0.0000000000000000
  0.2387168809802269  0.0000000000000000  0.5000000000000000
  0.7612831190197729  0.0000000000000000  0.5000000000000000
  0.2612831190197730  0.0000000000000000  0.0000000000000000
  0.7387168809802271  0.0000000000000000  0.0000000000000000
  0.7387168809802271  0.5000000000000000  0.5000000000000000
  0.2612831190197730  0.5000000000000000  0.5000000000000000
 
  0.00000000E+00  0.00000000E+00  0.00000000E+00
  0.00000000E+00  0.00000000E+00  0.00000000E+00
  0.00000000E+00  0.00000000E+00  0.00000000E+00
  0.00000000E+00  0.00000000E+00  0.00000000E+00
  0.00000000E+00  0.00000000E+00  0.00000000E+00
  0.00000000E+00  0.00000000E+00  0.00000000E+00
  0.00000000E+00  0.00000000E+00  0.00000000E+00
  0.00000000E+00  0.00000000E+00  0.00000000E+00
  0.00000000E+00  0.00000000E+00  0.00000000E+00
  0.00000000E+00  0.00000000E+00  0.00000000E+00
  0.00000000E+00  0.00000000E+00  0.00000000E+00
  0.00000000E+00  0.00000000E+00  0.00000000E+00
  0.00000000E+00  0.00000000E+00  0.00000000E+00
  0.00000000E+00  0.00000000E+00  0.00000000E+00
  0.00000000E+00  0.00000000E+00  0.00000000E+00
  0.00000000E+00  0.00000000E+00  0.00000000E+00
  0.00000000E+00  0.00000000E+00  0.00000000E+00
  0.00000000E+00  0.00000000E+00  0.00000000E+00
  0.00000000E+00  0.00000000E+00  0.00000000E+00
  0.00000000E+00  0.00000000E+00  0.00000000E+00
  0.00000000E+00  0.00000000E+00  0.00000000E+00
  0.00000000E+00  0.00000000E+00  0.00000000E+00
  0.00000000E+00  0.00000000E+00  0.00000000E+00
  0.00000000E+00  0.00000000E+00  0.00000000E+00
  0.00000000E+00  0.00000000E+00  0.00000000E+00
  0.00000000E+00  0.00000000E+00  0.00000000E+00
  0.00000000E+00  0.00000000E+00  0.00000000E+00
  0.00000000E+00  0.00000000E+00  0.00000000E+00
  0.00000000E+00  0.00000000E+00  0.00000000E+00
  0.00000000E+00  0.00000000E+00  0.00000000E+00
  0.00000000E+00  0.00000000E+00  0.00000000E+00
  0.00000000E+00  0.00000000E+00  0.00000000E+00
  0.00000000E+00  0.00000000E+00  0.00000000E+00
  0.00000000E+00  0.00000000E+00  0.00000000E+00
  0.00000000E+00  0.00000000E+00  0.00000000E+00
  0.00000000E+00  0.00000000E+00  0.00000000E+00
  0.00000000E+00  0.00000000E+00  0.00000000E+00
  0.00000000E+00  0.00000000E+00  0.00000000E+00
  0.00000000E+00  0.00000000E+00  0.00000000E+00
  0.00000000E+00  0.00000000E+00  0.00000000E+00
  0.00000000E+00  0.00000000E+00  0.00000000E+00
  0.00000000E+00  0.00000000E+00  0.00000000E+00
  0.00000000E+00  0.00000000E+00  0.00000000E+00
  0.00000000E+00  0.00000000E+00  0.00000000E+00
  0.00000000E+00  0.00000000E+00  0.00000000E+00
  0.00000000E+00  0.00000000E+00  0.00000000E+00
  0.00000000E+00  0.00000000E+00  0.00000000E+00
  0.00000000E+00  0.00000000E+00  0.00000000E+00
  0.00000000E+00  0.00000000E+00  0.00000000E+00
  0.00000000E+00  0.00000000E+00  0.00000000E+00
  0.00000000E+00  0.00000000E+00  0.00000000E+00
  0.00000000E+00  0.00000000E+00  0.00000000E+00
  0.00000000E+00  0.00000000E+00  0.00000000E+00
  0.00000000E+00  0.00000000E+00  0.00000000E+00
  0.00000000E+00  0.00000000E+00  0.00000000E+00
  0.00000000E+00  0.00000000E+00  0.00000000E+00
  0.00000000E+00  0.00000000E+00  0.00000000E+00
  0.00000000E+00  0.00000000E+00  0.00000000E+00
  0.00000000E+00  0.00000000E+00  0.00000000E+00
  0.00000000E+00  0.00000000E+00  0.00000000E+00
  0.00000000E+00  0.00000000E+00  0.00000000E+00
  0.00000000E+00  0.00000000E+00  0.00000000E+00
  0.00000000E+00  0.00000000E+00  0.00000000E+00
  0.00000000E+00  0.00000000E+00  0.00000000E+00
  0.00000000E+00  0.00000000E+00  0.00000000E+00
  0.00000000E+00  0.00000000E+00  0.00000000E+00
  0.00000000E+00  0.00000000E+00  0.00000000E+00
  0.00000000E+00  0.00000000E+00  0.00000000E+00
  0.00000000E+00  0.00000000E+00  0.00000000E+00
  0.00000000E+00  0.00000000E+00  0.00000000E+00
  0.00000000E+00  0.00000000E+00  0.00000000E+00
  0.00000000E+00  0.00000000E+00  0.00000000E+00
  0.00000000E+00  0.00000000E+00  0.00000000E+00
  0.00000000E+00  0.00000000E+00  0.00000000E+00
  0.00000000E+00  0.00000000E+00  0.00000000E+00
  0.00000000E+00  0.00000000E+00  0.00000000E+00
  0.00000000E+00  0.00000000E+00  0.00000000E+00
  0.00000000E+00  0.00000000E+00  0.00000000E+00
  0.00000000E+00  0.00000000E+00  0.00000000E+00
  0.00000000E+00  0.00000000E+00  0.00000000E+00
