B4C B11C-CBC
0
G            # Gamma centered Monkhorst-Pack grids
9 9 4        # 
0.0 0.0 0.0  # No shift

