C2 H4                                   
  0.986484830000000     
     4.8699998856000004    0.0000000000000000    0.0000000000000000
     0.0000000000000000    6.4600000380999996    0.0000000000000000
     0.0000000000000000    0.0000000000000000    4.1400000953999996
   C    H 
     4     8
Direct
  0.8855620598188998  0.0545596831226970  0.9638085128607777
  0.1144379551811050  0.9454403018772983  0.0361914611392202
  0.6144379401811002  0.5545596981227017  0.5361914871392223
  0.3855620598188998  0.4454403018772982  0.4638085428607803
  0.8051238698986459  0.1775389402937816  0.1248610001516607
  0.1948761151013493  0.8224610737062195  0.8751390078483402
  0.6948761301013541  0.6775389262937805  0.3751390078483400
  0.3051238698986460  0.3224610737062195  0.6248609921516598
  0.7673660962486639  0.0262454334215436  0.7397213937271735
  0.2326338737513335  0.9737545725784570  0.2602785762728242
  0.7326339037513361  0.5262454274215430  0.7602786062728265
  0.2673661262486666  0.4737545725784569  0.2397214237271759
 
  0.00000000E+00  0.00000000E+00  0.00000000E+00
  0.00000000E+00  0.00000000E+00  0.00000000E+00
  0.00000000E+00  0.00000000E+00  0.00000000E+00
  0.00000000E+00  0.00000000E+00  0.00000000E+00
  0.00000000E+00  0.00000000E+00  0.00000000E+00
  0.00000000E+00  0.00000000E+00  0.00000000E+00
  0.00000000E+00  0.00000000E+00  0.00000000E+00
  0.00000000E+00  0.00000000E+00  0.00000000E+00
  0.00000000E+00  0.00000000E+00  0.00000000E+00
  0.00000000E+00  0.00000000E+00  0.00000000E+00
  0.00000000E+00  0.00000000E+00  0.00000000E+00
  0.00000000E+00  0.00000000E+00  0.00000000E+00
