C2 H4                                   
  0.986484830000000     
     4.8699998856000004    0.0000000000000000    0.0000000000000000
     0.0000000000000000    6.4600000380999996    0.0000000000000000
     0.0000000000000000    0.0000000000000000    4.1400000953999996
   C    H 
     4     8
Direct
  0.8855479412479790  0.0545688280824172  0.9638128422406393
  0.1144520737520256  0.9454311569175781  0.0361871317593584
  0.6144520587520210  0.5545688430824219  0.5361871577593607
  0.3855479412479793  0.4454311569175780  0.4638128722406419
  0.8051131546226273  0.1775504754878158  0.1248606175806693
  0.1948868303773678  0.8224495385121852  0.8751393904193314
  0.6948868453773727  0.6775504614878148  0.3751393904193314
  0.3051131546226274  0.3224495385121854  0.6248606095806686
  0.7672417325225177  0.0262570071505260  0.7395879820340233
  0.2327582374774798  0.9737429988494745  0.2604119879659741
  0.7327582674774823  0.5262570011505255  0.7604120179659767
  0.2672417625225201  0.4737429988494744  0.2395880120340258
 
  0.00000000E+00  0.00000000E+00  0.00000000E+00
  0.00000000E+00  0.00000000E+00  0.00000000E+00
  0.00000000E+00  0.00000000E+00  0.00000000E+00
  0.00000000E+00  0.00000000E+00  0.00000000E+00
  0.00000000E+00  0.00000000E+00  0.00000000E+00
  0.00000000E+00  0.00000000E+00  0.00000000E+00
  0.00000000E+00  0.00000000E+00  0.00000000E+00
  0.00000000E+00  0.00000000E+00  0.00000000E+00
  0.00000000E+00  0.00000000E+00  0.00000000E+00
  0.00000000E+00  0.00000000E+00  0.00000000E+00
  0.00000000E+00  0.00000000E+00  0.00000000E+00
  0.00000000E+00  0.00000000E+00  0.00000000E+00
