C                                       
   1.00000000000000     
     4.9343108847663757   -0.0002224000391058    0.0000000000000000
    -2.4673480463666095    4.2731273762740685    0.0000000000000000
     0.0000000000000000    0.0000000000000000    6.7257423100000002
   C 
    32
Direct
  0.4999998485834212  0.0000001745863898  0.1250000000000000
  0.9999998485834212  0.0000001745863898  0.1250000000000000
  0.4999998485834141  0.5000001745863827  0.1250000000000000
  0.9999998485834141  0.5000001745863898  0.1250000000000000
  0.4999998485834212  0.0000001745863898  0.6250000000000000
  0.9999998485834212  0.0000001745863898  0.6250000000000000
  0.4999998485834141  0.5000001745863827  0.6250000000000000
  0.9999998485834141  0.5000001745863898  0.6250000000000000
  0.0000001745863898  0.4999998485834141  0.3750000000000000
  0.5000001745863898  0.4999998485834141  0.3750000000000000
  0.0000001745863827  0.9999998485834141  0.3750000000000000
  0.5000001745863827  0.9999998485834141  0.3750000000000000
  0.0000001745863898  0.4999998485834141  0.8750000000000000
  0.5000001745863898  0.4999998485834141  0.8750000000000000
  0.0000001745863827  0.9999998485834141  0.8750000000000000
  0.5000001745863827  0.9999998485834141  0.8750000000000000
  0.1654506605992054  0.3333505263518362  0.1238011956208496
  0.6666494649783630  0.3333505263518362  0.1250000000000000
  0.1666494649783559  0.8333505263518362  0.1250000000000000
  0.6666494649783630  0.8333505263518362  0.1250000000000000
  0.1666494649783559  0.3333505263518362  0.6250000000000000
  0.6666494649783630  0.3333505263518362  0.6250000000000000
  0.1666494649783559  0.8333505263518362  0.6250000000000000
  0.6666494649783630  0.8333505263518362  0.6250000000000000
  0.3333505263518362  0.1666494649783559  0.3750000000000000
  0.8333505263518362  0.1666494649783559  0.3750000000000000
  0.3333505263518362  0.6666494649783559  0.3750000000000000
  0.8333505263518362  0.6666494649783559  0.3750000000000000
  0.3333505263518362  0.1666494649783559  0.8750000000000000
  0.8333505263518362  0.1666494649783559  0.8750000000000000
  0.3333505263518362  0.6666494649783559  0.8750000000000000
  0.8333505263518362  0.6666494649783559  0.8750000000000000
 
  0.00000000E+00  0.00000000E+00  0.00000000E+00
  0.00000000E+00  0.00000000E+00  0.00000000E+00
  0.00000000E+00  0.00000000E+00  0.00000000E+00
  0.00000000E+00  0.00000000E+00  0.00000000E+00
  0.00000000E+00  0.00000000E+00  0.00000000E+00
  0.00000000E+00  0.00000000E+00  0.00000000E+00
  0.00000000E+00  0.00000000E+00  0.00000000E+00
  0.00000000E+00  0.00000000E+00  0.00000000E+00
  0.00000000E+00  0.00000000E+00  0.00000000E+00
  0.00000000E+00  0.00000000E+00  0.00000000E+00
  0.00000000E+00  0.00000000E+00  0.00000000E+00
  0.00000000E+00  0.00000000E+00  0.00000000E+00
  0.00000000E+00  0.00000000E+00  0.00000000E+00
  0.00000000E+00  0.00000000E+00  0.00000000E+00
  0.00000000E+00  0.00000000E+00  0.00000000E+00
  0.00000000E+00  0.00000000E+00  0.00000000E+00
  0.00000000E+00  0.00000000E+00  0.00000000E+00
  0.00000000E+00  0.00000000E+00  0.00000000E+00
  0.00000000E+00  0.00000000E+00  0.00000000E+00
  0.00000000E+00  0.00000000E+00  0.00000000E+00
  0.00000000E+00  0.00000000E+00  0.00000000E+00
  0.00000000E+00  0.00000000E+00  0.00000000E+00
  0.00000000E+00  0.00000000E+00  0.00000000E+00
  0.00000000E+00  0.00000000E+00  0.00000000E+00
  0.00000000E+00  0.00000000E+00  0.00000000E+00
  0.00000000E+00  0.00000000E+00  0.00000000E+00
  0.00000000E+00  0.00000000E+00  0.00000000E+00
  0.00000000E+00  0.00000000E+00  0.00000000E+00
  0.00000000E+00  0.00000000E+00  0.00000000E+00
  0.00000000E+00  0.00000000E+00  0.00000000E+00
  0.00000000E+00  0.00000000E+00  0.00000000E+00
  0.00000000E+00  0.00000000E+00  0.00000000E+00
