methane-low                             
  0.993288388000000     
    11.7079000473000008    0.0000000000000000    0.0000000000000000
     0.0000000000000000    8.1892995834000004    0.0000000000000000
     0.0000000000000000    0.0000000000000000    8.1842002868999995
   H    C 
    64    16
Direct
  0.0770857406160882  0.8177117980946688  0.1657393961816699
  0.9229142813839064  0.1822882019053313  0.8342606328183289
  0.9229142813839064  0.6822882019053312  0.6657393671816711
  0.0770857406160882  0.3177117980946688  0.3342606038183230
  0.9229142813839064  0.3177117980946688  0.3342606038183230
  0.0770857406160882  0.6822882019053312  0.6657393671816711
  0.0770857406160882  0.1822882019053313  0.8342606328183289
  0.9229142813839064  0.8177117980946688  0.1657393961816699
  0.5770857186160936  0.3177117980946688  0.1657393961816699
  0.4229142523839077  0.6822882019053312  0.8342606328183289
  0.4229142523839077  0.1822882019053313  0.6657393671816711
  0.5770857186160936  0.8177117980946688  0.3342606038183230
  0.4229142523839077  0.8177117980946688  0.3342606038183230
  0.5770857186160936  0.1822882019053313  0.6657393671816711
  0.5770857186160936  0.6822882019053312  0.8342606328183289
  0.4229142523839077  0.3177117980946688  0.1657393961816699
  0.8124664620282830  0.5854851005196586  0.9309570543573044
  0.1875335379717171  0.4145148994803414  0.0690429456426957
  0.1875335379717171  0.9145148994803414  0.4309570543573043
  0.8124664620282830  0.0854851005196586  0.5690429456426956
  0.1875335379717171  0.0854851005196586  0.5690429456426956
  0.8124664620282830  0.9145148994803414  0.4309570543573043
  0.8124664620282830  0.4145148994803414  0.0690429456426957
  0.1875335379717171  0.5854851005196586  0.9309570543573044
  0.3124664620282830  0.0854851005196586  0.9309570543573044
  0.6875335379717170  0.9145148994803414  0.0690429456426957
  0.6875335379717170  0.4145148994803414  0.4309570543573043
  0.3124664620282830  0.5854851005196586  0.5690429456426956
  0.6875335379717170  0.5854851005196586  0.5690429456426956
  0.3124664620282830  0.4145148994803414  0.4309570543573043
  0.3124664620282830  0.9145148994803414  0.0690429456426957
  0.6875335379717170  0.0854851005196586  0.9309570543573044
  0.7036680624260784  0.5693318934837870  0.0853590403524256
  0.2963319375739216  0.4306681065162130  0.9146409596475744
  0.2963319375739216  0.9306681065162130  0.5853590403524256
  0.7036680624260784  0.0693318934837870  0.4146409596475745
  0.2963319375739216  0.0693318934837870  0.4146409596475745
  0.7036680624260784  0.9306681065162130  0.5853590403524256
  0.7036680624260784  0.4306681065162130  0.9146409596475744
  0.2963319375739216  0.5693318934837870  0.0853590403524256
  0.2036680624260784  0.0693318934837870  0.0853590403524256
  0.7963319375739216  0.9306681065162130  0.9146409596475744
  0.7963319375739216  0.4306681065162130  0.5853590403524256
  0.2036680624260784  0.5693318934837870  0.4146409596475745
  0.7963319375739216  0.5693318934837870  0.4146409596475745
  0.2036680624260784  0.4306681065162130  0.5853590403524256
  0.2036680624260784  0.9306681065162130  0.9146409596475744
  0.7963319375739216  0.0693318934837870  0.0853590403524256
 -0.0000000000000000  0.6286228511194162  0.1418899958904387
 -0.0000000000000000  0.3713771488805839  0.8581099741095588
 -0.0000000000000000  0.8713771488805838  0.6418900258904412
 -0.0000000000000000  0.1286228511194162  0.3581100041095613
  0.5000000000000000  0.1286228511194162  0.1418899958904387
  0.5000000000000000  0.8713771488805838  0.8581099741095588
  0.5000000000000000  0.3713771488805839  0.6418900258904412
  0.5000000000000000  0.6286228511194162  0.3581100041095613
 -0.0000000000000000  0.2775817130376871  0.5198025269965713
 -0.0000000000000000  0.7224182869623129  0.4801974730034288
 -0.0000000000000000  0.2224182869623129  0.0198025269965712
 -0.0000000000000000  0.7775817130376871  0.9801974730034287
  0.5000000000000000  0.7775817130376871  0.5198025269965713
  0.5000000000000000  0.2224182869623129  0.4801974730034288
  0.5000000000000000  0.7224182869623129  0.0198025269965712
  0.5000000000000000  0.2775817130376871  0.9801974730034287
 -0.0000000000000000  0.2602565104316133  0.3859676752224586
 -0.0000000000000000  0.7397434895683866  0.6140323097775437
 -0.0000000000000000  0.2397434895683867  0.8859676902224563
 -0.0000000000000000  0.7602565104316134  0.1140323097775437
  0.5000000000000000  0.7602565104316134  0.3859676752224586
  0.5000000000000000  0.2397434895683867  0.6140323097775437
  0.5000000000000000  0.7397434895683866  0.8859676902224563
  0.5000000000000000  0.2602565104316133  0.1140323097775437
  0.7580475363167106  0.5000000000000000 -0.0000000000000000
  0.2419524636832894  0.5000000000000000 -0.0000000000000000
  0.2419524636832894 -0.0000000000000000  0.5000000000000000
  0.7580475363167106 -0.0000000000000000  0.5000000000000000
  0.2580475363167105 -0.0000000000000000 -0.0000000000000000
  0.7419524636832894 -0.0000000000000000 -0.0000000000000000
  0.7419524636832894  0.5000000000000000  0.5000000000000000
  0.2580475363167105  0.5000000000000000  0.5000000000000000
 
  0.00000000E+00  0.00000000E+00  0.00000000E+00
  0.00000000E+00  0.00000000E+00  0.00000000E+00
  0.00000000E+00  0.00000000E+00  0.00000000E+00
  0.00000000E+00  0.00000000E+00  0.00000000E+00
  0.00000000E+00  0.00000000E+00  0.00000000E+00
  0.00000000E+00  0.00000000E+00  0.00000000E+00
  0.00000000E+00  0.00000000E+00  0.00000000E+00
  0.00000000E+00  0.00000000E+00  0.00000000E+00
  0.00000000E+00  0.00000000E+00  0.00000000E+00
  0.00000000E+00  0.00000000E+00  0.00000000E+00
  0.00000000E+00  0.00000000E+00  0.00000000E+00
  0.00000000E+00  0.00000000E+00  0.00000000E+00
  0.00000000E+00  0.00000000E+00  0.00000000E+00
  0.00000000E+00  0.00000000E+00  0.00000000E+00
  0.00000000E+00  0.00000000E+00  0.00000000E+00
  0.00000000E+00  0.00000000E+00  0.00000000E+00
  0.00000000E+00  0.00000000E+00  0.00000000E+00
  0.00000000E+00  0.00000000E+00  0.00000000E+00
  0.00000000E+00  0.00000000E+00  0.00000000E+00
  0.00000000E+00  0.00000000E+00  0.00000000E+00
  0.00000000E+00  0.00000000E+00  0.00000000E+00
  0.00000000E+00  0.00000000E+00  0.00000000E+00
  0.00000000E+00  0.00000000E+00  0.00000000E+00
  0.00000000E+00  0.00000000E+00  0.00000000E+00
  0.00000000E+00  0.00000000E+00  0.00000000E+00
  0.00000000E+00  0.00000000E+00  0.00000000E+00
  0.00000000E+00  0.00000000E+00  0.00000000E+00
  0.00000000E+00  0.00000000E+00  0.00000000E+00
  0.00000000E+00  0.00000000E+00  0.00000000E+00
  0.00000000E+00  0.00000000E+00  0.00000000E+00
  0.00000000E+00  0.00000000E+00  0.00000000E+00
  0.00000000E+00  0.00000000E+00  0.00000000E+00
  0.00000000E+00  0.00000000E+00  0.00000000E+00
  0.00000000E+00  0.00000000E+00  0.00000000E+00
  0.00000000E+00  0.00000000E+00  0.00000000E+00
  0.00000000E+00  0.00000000E+00  0.00000000E+00
  0.00000000E+00  0.00000000E+00  0.00000000E+00
  0.00000000E+00  0.00000000E+00  0.00000000E+00
  0.00000000E+00  0.00000000E+00  0.00000000E+00
  0.00000000E+00  0.00000000E+00  0.00000000E+00
  0.00000000E+00  0.00000000E+00  0.00000000E+00
  0.00000000E+00  0.00000000E+00  0.00000000E+00
  0.00000000E+00  0.00000000E+00  0.00000000E+00
  0.00000000E+00  0.00000000E+00  0.00000000E+00
  0.00000000E+00  0.00000000E+00  0.00000000E+00
  0.00000000E+00  0.00000000E+00  0.00000000E+00
  0.00000000E+00  0.00000000E+00  0.00000000E+00
  0.00000000E+00  0.00000000E+00  0.00000000E+00
  0.00000000E+00  0.00000000E+00  0.00000000E+00
  0.00000000E+00  0.00000000E+00  0.00000000E+00
  0.00000000E+00  0.00000000E+00  0.00000000E+00
  0.00000000E+00  0.00000000E+00  0.00000000E+00
  0.00000000E+00  0.00000000E+00  0.00000000E+00
  0.00000000E+00  0.00000000E+00  0.00000000E+00
  0.00000000E+00  0.00000000E+00  0.00000000E+00
  0.00000000E+00  0.00000000E+00  0.00000000E+00
  0.00000000E+00  0.00000000E+00  0.00000000E+00
  0.00000000E+00  0.00000000E+00  0.00000000E+00
  0.00000000E+00  0.00000000E+00  0.00000000E+00
  0.00000000E+00  0.00000000E+00  0.00000000E+00
  0.00000000E+00  0.00000000E+00  0.00000000E+00
  0.00000000E+00  0.00000000E+00  0.00000000E+00
  0.00000000E+00  0.00000000E+00  0.00000000E+00
  0.00000000E+00  0.00000000E+00  0.00000000E+00
  0.00000000E+00  0.00000000E+00  0.00000000E+00
  0.00000000E+00  0.00000000E+00  0.00000000E+00
  0.00000000E+00  0.00000000E+00  0.00000000E+00
  0.00000000E+00  0.00000000E+00  0.00000000E+00
  0.00000000E+00  0.00000000E+00  0.00000000E+00
  0.00000000E+00  0.00000000E+00  0.00000000E+00
  0.00000000E+00  0.00000000E+00  0.00000000E+00
  0.00000000E+00  0.00000000E+00  0.00000000E+00
  0.00000000E+00  0.00000000E+00  0.00000000E+00
  0.00000000E+00  0.00000000E+00  0.00000000E+00
  0.00000000E+00  0.00000000E+00  0.00000000E+00
  0.00000000E+00  0.00000000E+00  0.00000000E+00
  0.00000000E+00  0.00000000E+00  0.00000000E+00
  0.00000000E+00  0.00000000E+00  0.00000000E+00
  0.00000000E+00  0.00000000E+00  0.00000000E+00
  0.00000000E+00  0.00000000E+00  0.00000000E+00
