methane-low                             
  0.993288388000000     
    11.7079000473000008    0.0000000000000000    0.0000000000000000
     0.0000000000000000    8.1892995834000004    0.0000000000000000
     0.0000000000000000    0.0000000000000000    8.1842002868999995
   H    C 
    64    16
Direct
  0.0794317547159671  0.7892359032487689  0.1708747979901759
  0.9205682672840276  0.2107640967512311  0.8291252310098230
  0.9205682672840276  0.7107640967512311  0.6708747689901770
  0.0794317547159671  0.2892359032487689  0.3291252020098241
  0.9205682672840276  0.2892359032487689  0.3291252020098241
  0.0794317547159671  0.7107640967512311  0.6708747689901770
  0.0794317547159671  0.2107640967512311  0.8291252310098230
  0.9205682672840276  0.7892359032487689  0.1708747979901759
  0.5794317327159724  0.2892359032487689  0.1708747979901759
  0.4205682382840287  0.7107640967512311  0.8291252310098230
  0.4205682382840287  0.2107640967512311  0.6708747689901770
  0.5794317327159724  0.7892359032487689  0.3291252020098241
  0.4205682382840287  0.7892359032487689  0.3291252020098241
  0.5794317327159724  0.2107640967512311  0.6708747689901770
  0.5794317327159724  0.7107640967512311  0.8291252310098230
  0.4205682382840287  0.2892359032487689  0.1708747979901759
  0.8070156698517984  0.5888353691903052  0.9258911299699061
  0.1929843301482016  0.4111646308096947  0.0741088700300940
  0.1929843301482016  0.9111646308096948  0.4258911299699061
  0.8070156698517984  0.0888353691903053  0.5741088700300939
  0.1929843301482016  0.0888353691903053  0.5741088700300939
  0.8070156698517984  0.9111646308096948  0.4258911299699061
  0.8070156698517984  0.4111646308096947  0.0741088700300940
  0.1929843301482016  0.5888353691903052  0.9258911299699061
  0.3070156698517985  0.0888353691903053  0.9258911299699061
  0.6929843301482016  0.9111646308096948  0.0741088700300940
  0.6929843301482016  0.4111646308096947  0.4258911299699061
  0.3070156698517985  0.5888353691903052  0.5741088700300939
  0.6929843301482016  0.5888353691903052  0.5741088700300939
  0.3070156698517985  0.4111646308096947  0.4258911299699061
  0.3070156698517985  0.9111646308096948  0.0741088700300940
  0.6929843301482016  0.0888353691903053  0.9258911299699061
  0.6925961466355917  0.5740772173720090  0.0888651382450987
  0.3074038533644083  0.4259227826279910  0.9111348617549013
  0.3074038533644083  0.9259227826279910  0.5888651382450987
  0.6925961466355917  0.0740772173720090  0.4111348617549013
  0.3074038533644083  0.0740772173720090  0.4111348617549013
  0.6925961466355917  0.9259227826279910  0.5888651382450987
  0.6925961466355917  0.4259227826279910  0.9111348617549013
  0.3074038533644083  0.5740772173720090  0.0888651382450987
  0.1925961466355917  0.0740772173720090  0.0888651382450987
  0.8074038533644083  0.9259227826279910  0.9111348617549013
  0.8074038533644083  0.4259227826279910  0.5888651382450987
  0.1925961466355917  0.5740772173720090  0.4111348617549013
  0.8074038533644083  0.5740772173720090  0.4111348617549013
  0.1925961466355917  0.4259227826279910  0.5888651382450987
  0.1925961466355917  0.9259227826279910  0.9111348617549013
  0.8074038533644083  0.0740772173720090  0.0888651382450987
 -0.0000000000000000  0.5961043906422644  0.2017548505460964
 -0.0000000000000000  0.4038956093577356  0.7982451194539011
 -0.0000000000000000  0.9038956093577356  0.7017548805460989
 -0.0000000000000000  0.0961043906422644  0.2982451494539036
  0.5000000000000000  0.0961043906422644  0.2017548505460964
  0.5000000000000000  0.9038956093577356  0.7982451194539011
  0.5000000000000000  0.4038956093577356  0.7017548805460989
  0.5000000000000000  0.5961043906422644  0.2982451494539036
 -0.0000000000000000  0.3153703212529170  0.6557903163068781
 -0.0000000000000000  0.6846296787470829 -0.6557903163068782
 -0.0000000000000000  0.1846296787470831  0.1557903163068781
 -0.0000000000000000 -0.1846296787470830 -0.1557903163068782
  0.5000000000000000 -0.1846296787470830  0.6557903163068781
  0.5000000000000000  0.1846296787470831 -0.6557903163068782
  0.5000000000000000  0.6846296787470831  0.1557903163068781
  0.5000000000000000  0.3153703212529170 -0.1557903163068782
 -0.0000000000000000  0.3056845299771809 -0.6197141862715411
 -0.0000000000000000  0.6943154700228191  0.6197141712715433
 -0.0000000000000000  0.1943154700228191 -0.1197141712715432
 -0.0000000000000000 -0.1943154700228191  0.1197141712715430
  0.5000000000000000 -0.1943154700228191 -0.6197141862715408
  0.5000000000000000  0.1943154700228191  0.6197141712715433
  0.5000000000000000  0.6943154700228191 -0.1197141712715432
  0.5000000000000000  0.3056845299771809  0.1197141712715430
  0.7497973934963984  0.5000000000000000  0.0000000000000000
  0.2502026065036017  0.5000000000000000  0.0000000000000000
  0.2502026065036017  0.0000000000000000  0.5000000000000000
  0.7497973934963984  0.0000000000000000  0.5000000000000000
  0.2497973934963983  0.0000000000000000  0.0000000000000000
  0.7502026065036016  0.0000000000000000  0.0000000000000000
  0.7502026065036016  0.5000000000000000  0.5000000000000000
  0.2497973934963983  0.5000000000000000  0.5000000000000000
 
  0.00000000E+00  0.00000000E+00  0.00000000E+00
  0.00000000E+00  0.00000000E+00  0.00000000E+00
  0.00000000E+00  0.00000000E+00  0.00000000E+00
  0.00000000E+00  0.00000000E+00  0.00000000E+00
  0.00000000E+00  0.00000000E+00  0.00000000E+00
  0.00000000E+00  0.00000000E+00  0.00000000E+00
  0.00000000E+00  0.00000000E+00  0.00000000E+00
  0.00000000E+00  0.00000000E+00  0.00000000E+00
  0.00000000E+00  0.00000000E+00  0.00000000E+00
  0.00000000E+00  0.00000000E+00  0.00000000E+00
  0.00000000E+00  0.00000000E+00  0.00000000E+00
  0.00000000E+00  0.00000000E+00  0.00000000E+00
  0.00000000E+00  0.00000000E+00  0.00000000E+00
  0.00000000E+00  0.00000000E+00  0.00000000E+00
  0.00000000E+00  0.00000000E+00  0.00000000E+00
  0.00000000E+00  0.00000000E+00  0.00000000E+00
  0.00000000E+00  0.00000000E+00  0.00000000E+00
  0.00000000E+00  0.00000000E+00  0.00000000E+00
  0.00000000E+00  0.00000000E+00  0.00000000E+00
  0.00000000E+00  0.00000000E+00  0.00000000E+00
  0.00000000E+00  0.00000000E+00  0.00000000E+00
  0.00000000E+00  0.00000000E+00  0.00000000E+00
  0.00000000E+00  0.00000000E+00  0.00000000E+00
  0.00000000E+00  0.00000000E+00  0.00000000E+00
  0.00000000E+00  0.00000000E+00  0.00000000E+00
  0.00000000E+00  0.00000000E+00  0.00000000E+00
  0.00000000E+00  0.00000000E+00  0.00000000E+00
  0.00000000E+00  0.00000000E+00  0.00000000E+00
  0.00000000E+00  0.00000000E+00  0.00000000E+00
  0.00000000E+00  0.00000000E+00  0.00000000E+00
  0.00000000E+00  0.00000000E+00  0.00000000E+00
  0.00000000E+00  0.00000000E+00  0.00000000E+00
  0.00000000E+00  0.00000000E+00  0.00000000E+00
  0.00000000E+00  0.00000000E+00  0.00000000E+00
  0.00000000E+00  0.00000000E+00  0.00000000E+00
  0.00000000E+00  0.00000000E+00  0.00000000E+00
  0.00000000E+00  0.00000000E+00  0.00000000E+00
  0.00000000E+00  0.00000000E+00  0.00000000E+00
  0.00000000E+00  0.00000000E+00  0.00000000E+00
  0.00000000E+00  0.00000000E+00  0.00000000E+00
  0.00000000E+00  0.00000000E+00  0.00000000E+00
  0.00000000E+00  0.00000000E+00  0.00000000E+00
  0.00000000E+00  0.00000000E+00  0.00000000E+00
  0.00000000E+00  0.00000000E+00  0.00000000E+00
  0.00000000E+00  0.00000000E+00  0.00000000E+00
  0.00000000E+00  0.00000000E+00  0.00000000E+00
  0.00000000E+00  0.00000000E+00  0.00000000E+00
  0.00000000E+00  0.00000000E+00  0.00000000E+00
  0.00000000E+00  0.00000000E+00  0.00000000E+00
  0.00000000E+00  0.00000000E+00  0.00000000E+00
  0.00000000E+00  0.00000000E+00  0.00000000E+00
  0.00000000E+00  0.00000000E+00  0.00000000E+00
  0.00000000E+00  0.00000000E+00  0.00000000E+00
  0.00000000E+00  0.00000000E+00  0.00000000E+00
  0.00000000E+00  0.00000000E+00  0.00000000E+00
  0.00000000E+00  0.00000000E+00  0.00000000E+00
  0.00000000E+00  0.00000000E+00  0.00000000E+00
  0.00000000E+00  0.00000000E+00  0.00000000E+00
  0.00000000E+00  0.00000000E+00  0.00000000E+00
  0.00000000E+00  0.00000000E+00  0.00000000E+00
  0.00000000E+00  0.00000000E+00  0.00000000E+00
  0.00000000E+00  0.00000000E+00  0.00000000E+00
  0.00000000E+00  0.00000000E+00  0.00000000E+00
  0.00000000E+00  0.00000000E+00  0.00000000E+00
  0.00000000E+00  0.00000000E+00  0.00000000E+00
  0.00000000E+00  0.00000000E+00  0.00000000E+00
  0.00000000E+00  0.00000000E+00  0.00000000E+00
  0.00000000E+00  0.00000000E+00  0.00000000E+00
  0.00000000E+00  0.00000000E+00  0.00000000E+00
  0.00000000E+00  0.00000000E+00  0.00000000E+00
  0.00000000E+00  0.00000000E+00  0.00000000E+00
  0.00000000E+00  0.00000000E+00  0.00000000E+00
  0.00000000E+00  0.00000000E+00  0.00000000E+00
  0.00000000E+00  0.00000000E+00  0.00000000E+00
  0.00000000E+00  0.00000000E+00  0.00000000E+00
  0.00000000E+00  0.00000000E+00  0.00000000E+00
  0.00000000E+00  0.00000000E+00  0.00000000E+00
  0.00000000E+00  0.00000000E+00  0.00000000E+00
  0.00000000E+00  0.00000000E+00  0.00000000E+00
  0.00000000E+00  0.00000000E+00  0.00000000E+00
