methane-1                               
  0.993288388000000     
     6.3499999045999997    0.0000000000000000    0.0000000000000000
     0.0000000000000000    6.3499999045999997    0.0000000000000000
     0.0000000000000000    0.0000000000000000    6.3499999045999997
   H    C 
    16     4
Direct
  0.6954562915845979  0.5219467379594166  0.3286787777273897
  0.6051621133117618  0.7955172899255125  0.7699432666072401
  0.6442824617149541  0.2168359117194470  0.8557621167860664
  0.1689457555695401  0.5148972177903167  0.0407298324718355
  0.9129530889907120  0.2067380724795324  0.2497199215639207
  0.8878186034967747  0.1462897802581008  0.7107505896395349
  0.3369371559075128  0.8839006328463966 -0.0038397378853951
  0.8146265837100479  0.7049249149419557  0.1174113061653944
  0.1727716734885080  0.5432921772146915  0.8437822054658846
  0.0642635783257058  0.7637727436870816  0.2668552243579753
  0.0767812906696901  0.2094225246863960  0.3567336079615796
  0.6492805974739976  0.4814016983205623  0.5588824945312636
  0.6572179879606393  0.0197002945446553  0.7781595432270324
  0.5954704917741166  0.2619461459522356  0.2511496070571808
  0.5810268492781451  0.7602003600865713  0.3337010309998826
  0.1236063400722831  0.9802297059634283  0.5532960977906800
  0.5066769886107849  0.4964315269094863 -0.0017351738239344
  0.0029056649885758  0.9972136618661561  0.0070143244336641
  0.9954065536277756  0.5050612377412285  0.5166882115377994
  0.4925200174438778 -0.0006425528931744  0.4713967013850143
 
  0.00000000E+00  0.00000000E+00  0.00000000E+00
  0.00000000E+00  0.00000000E+00  0.00000000E+00
  0.00000000E+00  0.00000000E+00  0.00000000E+00
  0.00000000E+00  0.00000000E+00  0.00000000E+00
  0.00000000E+00  0.00000000E+00  0.00000000E+00
  0.00000000E+00  0.00000000E+00  0.00000000E+00
  0.00000000E+00  0.00000000E+00  0.00000000E+00
  0.00000000E+00  0.00000000E+00  0.00000000E+00
  0.00000000E+00  0.00000000E+00  0.00000000E+00
  0.00000000E+00  0.00000000E+00  0.00000000E+00
  0.00000000E+00  0.00000000E+00  0.00000000E+00
  0.00000000E+00  0.00000000E+00  0.00000000E+00
  0.00000000E+00  0.00000000E+00  0.00000000E+00
  0.00000000E+00  0.00000000E+00  0.00000000E+00
  0.00000000E+00  0.00000000E+00  0.00000000E+00
  0.00000000E+00  0.00000000E+00  0.00000000E+00
  0.00000000E+00  0.00000000E+00  0.00000000E+00
  0.00000000E+00  0.00000000E+00  0.00000000E+00
  0.00000000E+00  0.00000000E+00  0.00000000E+00
  0.00000000E+00  0.00000000E+00  0.00000000E+00
