methane-low                             
  0.993288388000000     
    11.7079000473000008    0.0000000000000000    0.0000000000000000
     0.0000000000000000    8.1892995834000004    0.0000000000000000
     0.0000000000000000    0.0000000000000000    8.1842002868999995
   H    C 
    64    16
Direct
  0.0770857406172297  0.8177117980955962  0.1657393961806023
  0.9229142813827650  0.1822882019044037  0.8342606328193967
  0.9229142813827650  0.6822882019044038  0.6657393671806033
  0.0770857406172297  0.3177117980955963  0.3342606038193906
  0.9229142813827650  0.3177117980955963  0.3342606038193906
  0.0770857406172297  0.6822882019044038  0.6657393671806033
  0.0770857406172297  0.1822882019044037  0.8342606328193967
  0.9229142813827650  0.8177117980955962  0.1657393961806023
  0.5770857186172350  0.3177117980955963  0.1657393961806023
  0.4229142523827661  0.6822882019044038  0.8342606328193967
  0.4229142523827661  0.1822882019044037  0.6657393671806033
  0.5770857186172350  0.8177117980955962  0.3342606038193906
  0.4229142523827661  0.8177117980955962  0.3342606038193906
  0.5770857186172350  0.1822882019044037  0.6657393671806033
  0.5770857186172350  0.6822882019044038  0.8342606328193967
  0.4229142523827661  0.3177117980955963  0.1657393961806023
  0.8124664620281643  0.5854851005198132  0.9309570543571556
  0.1875335379718356  0.4145148994801868  0.0690429456428444
  0.1875335379718356  0.9145148994801868  0.4309570543571555
  0.8124664620281643  0.0854851005198131  0.5690429456428444
  0.1875335379718356  0.0854851005198131  0.5690429456428444
  0.8124664620281643  0.9145148994801868  0.4309570543571555
  0.8124664620281643  0.4145148994801868  0.0690429456428444
  0.1875335379718356  0.5854851005198132  0.9309570543571556
  0.3124664620281644  0.0854851005198131  0.9309570543571556
  0.6875335379718357  0.9145148994801868  0.0690429456428444
  0.6875335379718357  0.4145148994801868  0.4309570543571555
  0.3124664620281644  0.5854851005198132  0.5690429456428444
  0.6875335379718357  0.5854851005198132  0.5690429456428444
  0.3124664620281644  0.4145148994801868  0.4309570543571555
  0.3124664620281644  0.9145148994801868  0.0690429456428444
  0.6875335379718357  0.0854851005198131  0.9309570543571556
  0.7036680624260807  0.5693318934834843  0.0853590403521445
  0.2963319375739194  0.4306681065165156  0.9146409596478555
  0.2963319375739194  0.9306681065165157  0.5853590403521445
  0.7036680624260807  0.0693318934834844  0.4146409596478556
  0.2963319375739194  0.0693318934834844  0.4146409596478556
  0.7036680624260807  0.9306681065165157  0.5853590403521445
  0.7036680624260807  0.4306681065165156  0.9146409596478555
  0.2963319375739194  0.5693318934834843  0.0853590403521445
  0.2036680624260806  0.0693318934834844  0.0853590403521445
  0.7963319375739193  0.9306681065165157  0.9146409596478555
  0.7963319375739193  0.4306681065165156  0.5853590403521445
  0.2036680624260806  0.5693318934834843  0.4146409596478556
  0.7963319375739193  0.5693318934834843  0.4146409596478556
  0.2036680624260806  0.4306681065165156  0.5853590403521445
  0.2036680624260806  0.9306681065165157  0.9146409596478555
  0.7963319375739193  0.0693318934834844  0.0853590403521445
 -0.0000000000000000  0.6286228511189478  0.1418899958894184
 -0.0000000000000000  0.3713771488810522  0.8581099741105791
 -0.0000000000000000  0.8713771488810522  0.6418900258894209
 -0.0000000000000000  0.1286228511189478  0.3581100041105816
  0.5000000000000000  0.1286228511189478  0.1418899958894184
  0.5000000000000000  0.8713771488810522  0.8581099741105791
  0.5000000000000000  0.3713771488810522  0.6418900258894209
  0.5000000000000000  0.6286228511189478  0.3581100041105816
 -0.0000000000000000  0.2775817130378246  0.5198025269981145
 -0.0000000000000000  0.7224182869621754  0.4801974730018855
 -0.0000000000000000  0.2224182869621754  0.0198025269981144
 -0.0000000000000000  0.7775817130378246  0.9801974730018855
  0.5000000000000000  0.7775817130378246  0.5198025269981145
  0.5000000000000000  0.2224182869621754  0.4801974730018855
  0.5000000000000000  0.7224182869621754  0.0198025269981144
  0.5000000000000000  0.2775817130378246  0.9801974730018855
 -0.0000000000000000  0.2602565104314931  0.3859676752250630
 -0.0000000000000000  0.7397434895685069  0.6140323097749393
 -0.0000000000000000  0.2397434895685069  0.8859676902250607
 -0.0000000000000000  0.7602565104314931  0.1140323097749393
  0.5000000000000000  0.7602565104314931  0.3859676752250630
  0.5000000000000000  0.2397434895685069  0.6140323097749393
  0.5000000000000000  0.7397434895685069  0.8859676902250607
  0.5000000000000000  0.2602565104314931  0.1140323097749393
  0.7580475363158398  0.5000000000000000  0.0000000000000000
  0.2419524636841602  0.5000000000000000  0.0000000000000000
  0.2419524636841602 -0.0000000000000000  0.5000000000000000
  0.7580475363158398  0.0000000000000000  0.5000000000000000
  0.2580475363158398  0.0000000000000000  0.0000000000000000
  0.7419524636841602  0.0000000000000000  0.0000000000000000
  0.7419524636841602  0.5000000000000000  0.5000000000000000
  0.2580475363158398  0.5000000000000000  0.5000000000000000
 
  0.00000000E+00  0.00000000E+00  0.00000000E+00
  0.00000000E+00  0.00000000E+00  0.00000000E+00
  0.00000000E+00  0.00000000E+00  0.00000000E+00
  0.00000000E+00  0.00000000E+00  0.00000000E+00
  0.00000000E+00  0.00000000E+00  0.00000000E+00
  0.00000000E+00  0.00000000E+00  0.00000000E+00
  0.00000000E+00  0.00000000E+00  0.00000000E+00
  0.00000000E+00  0.00000000E+00  0.00000000E+00
  0.00000000E+00  0.00000000E+00  0.00000000E+00
  0.00000000E+00  0.00000000E+00  0.00000000E+00
  0.00000000E+00  0.00000000E+00  0.00000000E+00
  0.00000000E+00  0.00000000E+00  0.00000000E+00
  0.00000000E+00  0.00000000E+00  0.00000000E+00
  0.00000000E+00  0.00000000E+00  0.00000000E+00
  0.00000000E+00  0.00000000E+00  0.00000000E+00
  0.00000000E+00  0.00000000E+00  0.00000000E+00
  0.00000000E+00  0.00000000E+00  0.00000000E+00
  0.00000000E+00  0.00000000E+00  0.00000000E+00
  0.00000000E+00  0.00000000E+00  0.00000000E+00
  0.00000000E+00  0.00000000E+00  0.00000000E+00
  0.00000000E+00  0.00000000E+00  0.00000000E+00
  0.00000000E+00  0.00000000E+00  0.00000000E+00
  0.00000000E+00  0.00000000E+00  0.00000000E+00
  0.00000000E+00  0.00000000E+00  0.00000000E+00
  0.00000000E+00  0.00000000E+00  0.00000000E+00
  0.00000000E+00  0.00000000E+00  0.00000000E+00
  0.00000000E+00  0.00000000E+00  0.00000000E+00
  0.00000000E+00  0.00000000E+00  0.00000000E+00
  0.00000000E+00  0.00000000E+00  0.00000000E+00
  0.00000000E+00  0.00000000E+00  0.00000000E+00
  0.00000000E+00  0.00000000E+00  0.00000000E+00
  0.00000000E+00  0.00000000E+00  0.00000000E+00
  0.00000000E+00  0.00000000E+00  0.00000000E+00
  0.00000000E+00  0.00000000E+00  0.00000000E+00
  0.00000000E+00  0.00000000E+00  0.00000000E+00
  0.00000000E+00  0.00000000E+00  0.00000000E+00
  0.00000000E+00  0.00000000E+00  0.00000000E+00
  0.00000000E+00  0.00000000E+00  0.00000000E+00
  0.00000000E+00  0.00000000E+00  0.00000000E+00
  0.00000000E+00  0.00000000E+00  0.00000000E+00
  0.00000000E+00  0.00000000E+00  0.00000000E+00
  0.00000000E+00  0.00000000E+00  0.00000000E+00
  0.00000000E+00  0.00000000E+00  0.00000000E+00
  0.00000000E+00  0.00000000E+00  0.00000000E+00
  0.00000000E+00  0.00000000E+00  0.00000000E+00
  0.00000000E+00  0.00000000E+00  0.00000000E+00
  0.00000000E+00  0.00000000E+00  0.00000000E+00
  0.00000000E+00  0.00000000E+00  0.00000000E+00
  0.00000000E+00  0.00000000E+00  0.00000000E+00
  0.00000000E+00  0.00000000E+00  0.00000000E+00
  0.00000000E+00  0.00000000E+00  0.00000000E+00
  0.00000000E+00  0.00000000E+00  0.00000000E+00
  0.00000000E+00  0.00000000E+00  0.00000000E+00
  0.00000000E+00  0.00000000E+00  0.00000000E+00
  0.00000000E+00  0.00000000E+00  0.00000000E+00
  0.00000000E+00  0.00000000E+00  0.00000000E+00
  0.00000000E+00  0.00000000E+00  0.00000000E+00
  0.00000000E+00  0.00000000E+00  0.00000000E+00
  0.00000000E+00  0.00000000E+00  0.00000000E+00
  0.00000000E+00  0.00000000E+00  0.00000000E+00
  0.00000000E+00  0.00000000E+00  0.00000000E+00
  0.00000000E+00  0.00000000E+00  0.00000000E+00
  0.00000000E+00  0.00000000E+00  0.00000000E+00
  0.00000000E+00  0.00000000E+00  0.00000000E+00
  0.00000000E+00  0.00000000E+00  0.00000000E+00
  0.00000000E+00  0.00000000E+00  0.00000000E+00
  0.00000000E+00  0.00000000E+00  0.00000000E+00
  0.00000000E+00  0.00000000E+00  0.00000000E+00
  0.00000000E+00  0.00000000E+00  0.00000000E+00
  0.00000000E+00  0.00000000E+00  0.00000000E+00
  0.00000000E+00  0.00000000E+00  0.00000000E+00
  0.00000000E+00  0.00000000E+00  0.00000000E+00
  0.00000000E+00  0.00000000E+00  0.00000000E+00
  0.00000000E+00  0.00000000E+00  0.00000000E+00
  0.00000000E+00  0.00000000E+00  0.00000000E+00
  0.00000000E+00  0.00000000E+00  0.00000000E+00
  0.00000000E+00  0.00000000E+00  0.00000000E+00
  0.00000000E+00  0.00000000E+00  0.00000000E+00
  0.00000000E+00  0.00000000E+00  0.00000000E+00
  0.00000000E+00  0.00000000E+00  0.00000000E+00
