methane-low                             
  0.993288388000000     
    11.7079000473000008    0.0000000000000000    0.0000000000000000
     0.0000000000000000    8.1892995834000004    0.0000000000000000
     0.0000000000000000    0.0000000000000000    8.1842002868999995
   H    C 
    64    16
Direct
  0.0320525213333996  0.8433433681948257  0.0332644056829527
  0.9679475006665952  0.1566566318051745  0.9667356233170461
  0.9679475006665952  0.6566566318051744  0.5332643766829539
  0.0320525213333996  0.3433433681948251  0.4667355943170474
  0.9679475006665952  0.3433433681948251  0.4667355943170475
  0.0320525213333996  0.6566566318051743  0.5332643766829539
  0.0320525213333996  0.1566566318051745  0.9667356233170461
  0.9679475006665952  0.8433433681948257  0.0332644056829527
  0.5320524993334048  0.3433433681948251  0.0332644056829527
  0.4679474716665964  0.6566566318051743  0.9667356233170461
  0.4679474716665964  0.1566566318051745  0.5332643766829539
  0.5320524993334048  0.8433433681948257  0.4667355943170474
  0.4679474716665964  0.8433433681948257  0.4667355943170474
  0.5320524993334048  0.1566566318051745  0.5332643766829539
  0.5320524993334048  0.6566566318051743  0.9667356233170461
  0.4679474716665964  0.3433433681948251  0.0332644056829527
  0.7789145189652440  0.5878045852294774  0.9354834952501163
  0.2210854810347565  0.4121954147705228  0.0645165047498832
  0.2210854810347565  0.9121954147705226  0.4354834952501165
  0.7789145189652440  0.0878045852294774  0.5645165047498837
  0.2210854810347565  0.0878045852294774  0.5645165047498837
  0.7789145189652440  0.9121954147705226  0.4354834952501165
  0.7789145189652440  0.4121954147705228  0.0645165047498832
  0.2210854810347565  0.5878045852294774  0.9354834952501163
  0.2789145189652439  0.0878045852294774  0.9354834952501163
  0.7210854810347560  0.9121954147705226  0.0645165047498832
  0.7210854810347560  0.4121954147705228  0.4354834952501165
  0.2789145189652439  0.5878045852294774  0.5645165047498837
  0.7210854810347560  0.5878045852294774  0.5645165047498837
  0.2789145189652439  0.4121954147705228  0.4354834952501165
  0.2789145189652439  0.9121954147705226  0.0645165047498831
  0.7210854810347560  0.0878045852294774  0.9354834952501163
  0.6702219496396451  0.5649392876164623  0.0895323823542144
  0.3297780503603540  0.4350607123835378  0.9104676176457858
  0.3297780503603540  0.9350607123835377  0.5895323823542141
  0.6702219496396451  0.0649392876164619  0.4104676176457858
  0.3297780503603540  0.0649392876164619  0.4104676176457858
  0.6702219496396451  0.9350607123835377  0.5895323823542141
  0.6702219496396451  0.4350607123835378  0.9104676176457858
  0.3297780503603540  0.5649392876164623  0.0895323823542144
  0.1702219496396453  0.0649392876164619  0.0895323823542144
  0.8297780503603549  0.9350607123835377  0.9104676176457858
  0.8297780503603549  0.4350607123835378  0.5895323823542141
  0.1702219496396453  0.5649392876164623  0.4104676176457858
  0.8297780503603549  0.5649392876164623  0.4104676176457858
  0.1702219496396454  0.4350607123835378  0.5895323823542142
  0.1702219496396453  0.9350607123835377  0.9104676176457858
  0.8297780503603549  0.0649392876164619  0.0895323823542144
  0.0000000000000000  0.3782068527475477  0.1463026233031637
  0.0000000000000000  0.6217931472524513  0.8536973466968346
  0.0000000000000000  0.1217931472524519  0.6463026533031655
  0.0000000000000000 -0.1217931472524521  0.3536973766968357
  0.5000000000000000 -0.1217931472524520  0.1463026233031637
  0.5000000000000000  0.1217931472524519  0.8536973466968345
  0.5000000000000000  0.6217931472524512  0.6463026533031655
  0.5000000000000000  0.3782068527475477  0.3536973766968357
  0.0000000000000000  0.6051364783361670  0.1584628766094597
  0.0000000000000000  0.3948635216638335 -0.1584628766094598
  0.0000000000000000 -0.1051364783361667 -0.3415371233905404
  0.0000000000000000  0.1051364783361668  0.3415371233905402
  0.5000000000000000  0.1051364783361667  0.1584628766094597
  0.5000000000000000 -0.1051364783361667 -0.1584628766094598
  0.5000000000000000  0.3948635216638335 -0.3415371233905403
  0.5000000000000000  0.6051364783361670  0.3415371233905403
  0.0000000000000000  0.5045556381738632 -0.0816126045156732
  0.0000000000000000  0.4954443618261374  0.0816125895156756
  0.0000000000000000 -0.0045556381738628  0.4183874104843250
  0.0000000000000000  0.0045556381738628 -0.4183874104843249
  0.5000000000000000  0.0045556381738627 -0.0816126045156732
  0.5000000000000000 -0.0045556381738626  0.0816125895156756
  0.5000000000000000  0.4954443618261373  0.4183874104843250
  0.5000000000000000  0.5045556381738632 -0.4183874104843249
  0.7238816957672800  0.5000000000000000 -0.0000000000000000
  0.2761183042327197  0.5000000000000000 -0.0000000000000000
  0.2761183042327197  0.0000000000000000  0.5000000000000000
  0.7238816957672799  0.0000000000000000  0.5000000000000000
  0.2238816957672804  0.0000000000000000 -0.0000000000000000
  0.7761183042327200  0.0000000000000000 -0.0000000000000000
  0.7761183042327200  0.5000000000000000  0.5000000000000000
  0.2238816957672804  0.5000000000000000  0.5000000000000000
 
  0.00000000E+00  0.00000000E+00  0.00000000E+00
  0.00000000E+00  0.00000000E+00  0.00000000E+00
  0.00000000E+00  0.00000000E+00  0.00000000E+00
  0.00000000E+00  0.00000000E+00  0.00000000E+00
  0.00000000E+00  0.00000000E+00  0.00000000E+00
  0.00000000E+00  0.00000000E+00  0.00000000E+00
  0.00000000E+00  0.00000000E+00  0.00000000E+00
  0.00000000E+00  0.00000000E+00  0.00000000E+00
  0.00000000E+00  0.00000000E+00  0.00000000E+00
  0.00000000E+00  0.00000000E+00  0.00000000E+00
  0.00000000E+00  0.00000000E+00  0.00000000E+00
  0.00000000E+00  0.00000000E+00  0.00000000E+00
  0.00000000E+00  0.00000000E+00  0.00000000E+00
  0.00000000E+00  0.00000000E+00  0.00000000E+00
  0.00000000E+00  0.00000000E+00  0.00000000E+00
  0.00000000E+00  0.00000000E+00  0.00000000E+00
  0.00000000E+00  0.00000000E+00  0.00000000E+00
  0.00000000E+00  0.00000000E+00  0.00000000E+00
  0.00000000E+00  0.00000000E+00  0.00000000E+00
  0.00000000E+00  0.00000000E+00  0.00000000E+00
  0.00000000E+00  0.00000000E+00  0.00000000E+00
  0.00000000E+00  0.00000000E+00  0.00000000E+00
  0.00000000E+00  0.00000000E+00  0.00000000E+00
  0.00000000E+00  0.00000000E+00  0.00000000E+00
  0.00000000E+00  0.00000000E+00  0.00000000E+00
  0.00000000E+00  0.00000000E+00  0.00000000E+00
  0.00000000E+00  0.00000000E+00  0.00000000E+00
  0.00000000E+00  0.00000000E+00  0.00000000E+00
  0.00000000E+00  0.00000000E+00  0.00000000E+00
  0.00000000E+00  0.00000000E+00  0.00000000E+00
  0.00000000E+00  0.00000000E+00  0.00000000E+00
  0.00000000E+00  0.00000000E+00  0.00000000E+00
  0.00000000E+00  0.00000000E+00  0.00000000E+00
  0.00000000E+00  0.00000000E+00  0.00000000E+00
  0.00000000E+00  0.00000000E+00  0.00000000E+00
  0.00000000E+00  0.00000000E+00  0.00000000E+00
  0.00000000E+00  0.00000000E+00  0.00000000E+00
  0.00000000E+00  0.00000000E+00  0.00000000E+00
  0.00000000E+00  0.00000000E+00  0.00000000E+00
  0.00000000E+00  0.00000000E+00  0.00000000E+00
  0.00000000E+00  0.00000000E+00  0.00000000E+00
  0.00000000E+00  0.00000000E+00  0.00000000E+00
  0.00000000E+00  0.00000000E+00  0.00000000E+00
  0.00000000E+00  0.00000000E+00  0.00000000E+00
  0.00000000E+00  0.00000000E+00  0.00000000E+00
  0.00000000E+00  0.00000000E+00  0.00000000E+00
  0.00000000E+00  0.00000000E+00  0.00000000E+00
  0.00000000E+00  0.00000000E+00  0.00000000E+00
  0.00000000E+00  0.00000000E+00  0.00000000E+00
  0.00000000E+00  0.00000000E+00  0.00000000E+00
  0.00000000E+00  0.00000000E+00  0.00000000E+00
  0.00000000E+00  0.00000000E+00  0.00000000E+00
  0.00000000E+00  0.00000000E+00  0.00000000E+00
  0.00000000E+00  0.00000000E+00  0.00000000E+00
  0.00000000E+00  0.00000000E+00  0.00000000E+00
  0.00000000E+00  0.00000000E+00  0.00000000E+00
  0.00000000E+00  0.00000000E+00  0.00000000E+00
  0.00000000E+00  0.00000000E+00  0.00000000E+00
  0.00000000E+00  0.00000000E+00  0.00000000E+00
  0.00000000E+00  0.00000000E+00  0.00000000E+00
  0.00000000E+00  0.00000000E+00  0.00000000E+00
  0.00000000E+00  0.00000000E+00  0.00000000E+00
  0.00000000E+00  0.00000000E+00  0.00000000E+00
  0.00000000E+00  0.00000000E+00  0.00000000E+00
  0.00000000E+00  0.00000000E+00  0.00000000E+00
  0.00000000E+00  0.00000000E+00  0.00000000E+00
  0.00000000E+00  0.00000000E+00  0.00000000E+00
  0.00000000E+00  0.00000000E+00  0.00000000E+00
  0.00000000E+00  0.00000000E+00  0.00000000E+00
  0.00000000E+00  0.00000000E+00  0.00000000E+00
  0.00000000E+00  0.00000000E+00  0.00000000E+00
  0.00000000E+00  0.00000000E+00  0.00000000E+00
  0.00000000E+00  0.00000000E+00  0.00000000E+00
  0.00000000E+00  0.00000000E+00  0.00000000E+00
  0.00000000E+00  0.00000000E+00  0.00000000E+00
  0.00000000E+00  0.00000000E+00  0.00000000E+00
  0.00000000E+00  0.00000000E+00  0.00000000E+00
  0.00000000E+00  0.00000000E+00  0.00000000E+00
  0.00000000E+00  0.00000000E+00  0.00000000E+00
  0.00000000E+00  0.00000000E+00  0.00000000E+00
