methane-low                             
  0.993288388000000     
    11.7079000473000008    0.0000000000000000    0.0000000000000000
     0.0000000000000000    8.1892995834000004    0.0000000000000000
     0.0000000000000000    0.0000000000000000    8.1842002868999995
   H    C 
    64    16
Direct
  0.0318110148315280  0.8623798437213201  0.1438692212489928
  0.9681890071684668  0.1376201562786805  0.8561308077510060
  0.9681890071684666  0.6376201562786799  0.6438691922489940
  0.0318110148315280  0.3623798437213194  0.3561307787510071
  0.9681890071684668  0.3623798437213194  0.3561307787510071
  0.0318110148315280  0.6376201562786799  0.6438691922489940
  0.0318110148315280  0.1376201562786805  0.8561308077510060
  0.9681890071684667  0.8623798437213201  0.1438692212489928
  0.5318109928315332  0.3623798437213194  0.1438692212489928
  0.4681889781684677  0.6376201562786799  0.8561308077510060
  0.4681889781684677  0.1376201562786805  0.6438691922489940
  0.5318109928315332  0.8623798437213201  0.3561307787510071
  0.4681889781684677  0.8623798437213201  0.3561307787510071
  0.5318109928315332  0.1376201562786805  0.6438691922489940
  0.5318109928315332  0.6376201562786800  0.8561308077510060
  0.4681889781684677  0.3623798437213194  0.1438692212489928
  0.7826476784304159  0.5826966654601194  0.9298438822536922
  0.2173523215695840  0.4173033345398804  0.0701561177463083
  0.2173523215695840  0.9173033345398806  0.4298438822536916
  0.7826476784304159  0.0826966654601198  0.5701561177463079
  0.2173523215695840  0.0826966654601198  0.5701561177463079
  0.7826476784304159  0.9173033345398806  0.4298438822536916
  0.7826476784304159  0.4173033345398804  0.0701561177463083
  0.2173523215695840  0.5826966654601194  0.9298438822536922
  0.2826476784304161  0.0826966654601198  0.9298438822536922
  0.7173523215695841  0.9173033345398806  0.0701561177463083
  0.7173523215695841  0.4173033345398804  0.4298438822536916
  0.2826476784304161  0.5826966654601194  0.5701561177463079
  0.7173523215695841  0.5826966654601194  0.5701561177463079
  0.2826476784304161  0.4173033345398804  0.4298438822536916
  0.2826476784304161  0.9173033345398806  0.0701561177463083
  0.7173523215695841  0.0826966654601198  0.9298438822536922
  0.6735841326850627  0.5719072462579006  0.0846928133063351
  0.3264158673149377  0.4280927537420994  0.9153071866936647
  0.3264158673149377  0.9280927537420994  0.5846928133063353
  0.6735841326850627  0.0719072462579008  0.4153071866936648
  0.3264158673149377  0.0719072462579008  0.4153071866936648
  0.6735841326850627  0.9280927537420994  0.5846928133063353
  0.6735841326850627  0.4280927537420994  0.9153071866936647
  0.3264158673149377  0.5719072462579006  0.0846928133063351
  0.1735841326850624  0.0719072462579008  0.0846928133063352
  0.8264158673149373  0.9280927537420994  0.9153071866936647
  0.8264158673149373  0.4280927537420994  0.5846928133063353
  0.1735841326850624  0.5719072462579006  0.4153071866936648
  0.8264158673149373  0.5719072462579006  0.4153071866936648
  0.1735841326850625  0.4280927537420994  0.5846928133063353
  0.1735841326850624  0.9280927537420994  0.9153071866936647
  0.8264158673149373  0.0719072462579008  0.0846928133063351
  0.0000000000000000  0.4579835972550574  0.1805902174727005
  0.0000000000000000  0.5420164027449424  0.8194097525272972
  0.0000000000000000  0.0420164027449427  0.6805902474727028
  0.0000000000000000 -0.0420164027449428  0.3194097825272996
  0.5000000000000000 -0.0420164027449428  0.1805902174727006
  0.5000000000000000  0.0420164027449424  0.8194097525272972
  0.5000000000000000  0.5420164027449424  0.6805902474727028
  0.5000000000000000  0.4579835972550574  0.3194097825272996
  0.0000000000000000  0.6628447056704911  0.0885257015562800
  0.0000000000000000  0.3371552943295089 -0.0885257015562799
  0.0000000000000000 -0.1628447056704911 -0.4114742984437198
  0.0000000000000000  0.1628447056704911  0.4114742984437198
  0.5000000000000000  0.1628447056704911  0.0885257015562800
  0.5000000000000000 -0.1628447056704911 -0.0885257015562798
  0.5000000000000000  0.3371552943295089 -0.4114742984437198
  0.5000000000000000  0.6628447056704911  0.4114742984437200
  0.0000000000000000  0.4632483765942167 -0.0746889089553504
  0.0000000000000000  0.5367516234057830  0.0746888939553528
  0.0000000000000000  0.0367516234057831  0.4253111060446473
  0.0000000000000000 -0.0367516234057831 -0.4253111060446473
  0.5000000000000000 -0.0367516234057831 -0.0746889089553504
  0.5000000000000000  0.0367516234057832  0.0746888939553528
  0.5000000000000000  0.5367516234057830  0.4253111060446473
  0.5000000000000000  0.4632483765942167 -0.4253111060446473
  0.7276058542941207  0.5000000000000000 -0.0000000000000000
  0.2723941457058788  0.5000000000000000 -0.0000000000000000
  0.2723941457058788  0.0000000000000000  0.5000000000000000
  0.7276058542941207  0.0000000000000000  0.5000000000000000
  0.2276058542941210  0.0000000000000000 -0.0000000000000000
  0.7723941457058793  0.0000000000000000 -0.0000000000000000
  0.7723941457058793  0.5000000000000000  0.5000000000000000
  0.2276058542941210  0.5000000000000000  0.5000000000000000
 
  0.00000000E+00  0.00000000E+00  0.00000000E+00
  0.00000000E+00  0.00000000E+00  0.00000000E+00
  0.00000000E+00  0.00000000E+00  0.00000000E+00
  0.00000000E+00  0.00000000E+00  0.00000000E+00
  0.00000000E+00  0.00000000E+00  0.00000000E+00
  0.00000000E+00  0.00000000E+00  0.00000000E+00
  0.00000000E+00  0.00000000E+00  0.00000000E+00
  0.00000000E+00  0.00000000E+00  0.00000000E+00
  0.00000000E+00  0.00000000E+00  0.00000000E+00
  0.00000000E+00  0.00000000E+00  0.00000000E+00
  0.00000000E+00  0.00000000E+00  0.00000000E+00
  0.00000000E+00  0.00000000E+00  0.00000000E+00
  0.00000000E+00  0.00000000E+00  0.00000000E+00
  0.00000000E+00  0.00000000E+00  0.00000000E+00
  0.00000000E+00  0.00000000E+00  0.00000000E+00
  0.00000000E+00  0.00000000E+00  0.00000000E+00
  0.00000000E+00  0.00000000E+00  0.00000000E+00
  0.00000000E+00  0.00000000E+00  0.00000000E+00
  0.00000000E+00  0.00000000E+00  0.00000000E+00
  0.00000000E+00  0.00000000E+00  0.00000000E+00
  0.00000000E+00  0.00000000E+00  0.00000000E+00
  0.00000000E+00  0.00000000E+00  0.00000000E+00
  0.00000000E+00  0.00000000E+00  0.00000000E+00
  0.00000000E+00  0.00000000E+00  0.00000000E+00
  0.00000000E+00  0.00000000E+00  0.00000000E+00
  0.00000000E+00  0.00000000E+00  0.00000000E+00
  0.00000000E+00  0.00000000E+00  0.00000000E+00
  0.00000000E+00  0.00000000E+00  0.00000000E+00
  0.00000000E+00  0.00000000E+00  0.00000000E+00
  0.00000000E+00  0.00000000E+00  0.00000000E+00
  0.00000000E+00  0.00000000E+00  0.00000000E+00
  0.00000000E+00  0.00000000E+00  0.00000000E+00
  0.00000000E+00  0.00000000E+00  0.00000000E+00
  0.00000000E+00  0.00000000E+00  0.00000000E+00
  0.00000000E+00  0.00000000E+00  0.00000000E+00
  0.00000000E+00  0.00000000E+00  0.00000000E+00
  0.00000000E+00  0.00000000E+00  0.00000000E+00
  0.00000000E+00  0.00000000E+00  0.00000000E+00
  0.00000000E+00  0.00000000E+00  0.00000000E+00
  0.00000000E+00  0.00000000E+00  0.00000000E+00
  0.00000000E+00  0.00000000E+00  0.00000000E+00
  0.00000000E+00  0.00000000E+00  0.00000000E+00
  0.00000000E+00  0.00000000E+00  0.00000000E+00
  0.00000000E+00  0.00000000E+00  0.00000000E+00
  0.00000000E+00  0.00000000E+00  0.00000000E+00
  0.00000000E+00  0.00000000E+00  0.00000000E+00
  0.00000000E+00  0.00000000E+00  0.00000000E+00
  0.00000000E+00  0.00000000E+00  0.00000000E+00
  0.00000000E+00  0.00000000E+00  0.00000000E+00
  0.00000000E+00  0.00000000E+00  0.00000000E+00
  0.00000000E+00  0.00000000E+00  0.00000000E+00
  0.00000000E+00  0.00000000E+00  0.00000000E+00
  0.00000000E+00  0.00000000E+00  0.00000000E+00
  0.00000000E+00  0.00000000E+00  0.00000000E+00
  0.00000000E+00  0.00000000E+00  0.00000000E+00
  0.00000000E+00  0.00000000E+00  0.00000000E+00
  0.00000000E+00  0.00000000E+00  0.00000000E+00
  0.00000000E+00  0.00000000E+00  0.00000000E+00
  0.00000000E+00  0.00000000E+00  0.00000000E+00
  0.00000000E+00  0.00000000E+00  0.00000000E+00
  0.00000000E+00  0.00000000E+00  0.00000000E+00
  0.00000000E+00  0.00000000E+00  0.00000000E+00
  0.00000000E+00  0.00000000E+00  0.00000000E+00
  0.00000000E+00  0.00000000E+00  0.00000000E+00
  0.00000000E+00  0.00000000E+00  0.00000000E+00
  0.00000000E+00  0.00000000E+00  0.00000000E+00
  0.00000000E+00  0.00000000E+00  0.00000000E+00
  0.00000000E+00  0.00000000E+00  0.00000000E+00
  0.00000000E+00  0.00000000E+00  0.00000000E+00
  0.00000000E+00  0.00000000E+00  0.00000000E+00
  0.00000000E+00  0.00000000E+00  0.00000000E+00
  0.00000000E+00  0.00000000E+00  0.00000000E+00
  0.00000000E+00  0.00000000E+00  0.00000000E+00
  0.00000000E+00  0.00000000E+00  0.00000000E+00
  0.00000000E+00  0.00000000E+00  0.00000000E+00
  0.00000000E+00  0.00000000E+00  0.00000000E+00
  0.00000000E+00  0.00000000E+00  0.00000000E+00
  0.00000000E+00  0.00000000E+00  0.00000000E+00
  0.00000000E+00  0.00000000E+00  0.00000000E+00
  0.00000000E+00  0.00000000E+00  0.00000000E+00
