methane-1                               
  0.993288388000000     
     6.3499999045999997    0.0000000000000000    0.0000000000000000
     0.0000000000000000    6.3499999045999997    0.0000000000000000
     0.0000000000000000    0.0000000000000000    6.3499999045999997
   H    C 
    16     4
Direct
  0.6178455489756531  0.5368085717085626  0.1875443262732719
  0.5608864509638494  0.6640975836149134  0.8687957542511151
  0.5843443038925931  0.3265431717068411  0.9157577213826925
  0.3119070193287670  0.4967140541094194  0.0398729588753188
  0.9580721053952103  0.1248846763961369  0.1538265242923389
  0.9426241150274660  0.0781102087521786  0.8241519317033879
  0.2018369104239861  0.9383040357360060  0.0022774344186453
  0.8858948319865747  0.8197900501068731  0.0479572718185202
  0.0948984557692853  0.5351145055969369  0.6923037018944476
  0.0336029080591784  0.6634838856426915  0.3795058563127637
  0.0532377544754105  0.3308338902072447  0.4243590353983971
  0.7865761738395781  0.4937311522011671  0.5477813017186908
  0.5874168246834969  0.0293752740386585  0.6597478746815618
  0.5330168176348413  0.1562891185997072  0.3477287192500225
  0.5531719241269231  0.8253555968042661  0.3925783168036562
  0.2815173684070108  0.9876463793175722  0.5208587604685437
  0.5158766624972787  0.5036266739598217  0.0023171609738018
  0.9994613069732423  0.9909997375128270  0.0057471440388471
  0.9928589653199670  0.5068336614099781  0.5135444655680622
  0.4890636402196893  0.0005378545781951  0.4784236878759243
 
  0.00000000E+00  0.00000000E+00  0.00000000E+00
  0.00000000E+00  0.00000000E+00  0.00000000E+00
  0.00000000E+00  0.00000000E+00  0.00000000E+00
  0.00000000E+00  0.00000000E+00  0.00000000E+00
  0.00000000E+00  0.00000000E+00  0.00000000E+00
  0.00000000E+00  0.00000000E+00  0.00000000E+00
  0.00000000E+00  0.00000000E+00  0.00000000E+00
  0.00000000E+00  0.00000000E+00  0.00000000E+00
  0.00000000E+00  0.00000000E+00  0.00000000E+00
  0.00000000E+00  0.00000000E+00  0.00000000E+00
  0.00000000E+00  0.00000000E+00  0.00000000E+00
  0.00000000E+00  0.00000000E+00  0.00000000E+00
  0.00000000E+00  0.00000000E+00  0.00000000E+00
  0.00000000E+00  0.00000000E+00  0.00000000E+00
  0.00000000E+00  0.00000000E+00  0.00000000E+00
  0.00000000E+00  0.00000000E+00  0.00000000E+00
  0.00000000E+00  0.00000000E+00  0.00000000E+00
  0.00000000E+00  0.00000000E+00  0.00000000E+00
  0.00000000E+00  0.00000000E+00  0.00000000E+00
  0.00000000E+00  0.00000000E+00  0.00000000E+00
