methane-low                             
  0.993288388000000     
    11.7079000473000008    0.0000000000000000    0.0000000000000000
     0.0000000000000000    8.1892995834000004    0.0000000000000000
     0.0000000000000000    0.0000000000000000    8.1842002868999995
   H    C 
    64    16
Direct
  0.0318285708398381  0.8914157058258456  0.0802986130314263
  0.9681714511601566  0.1085842941741554  0.9197014159685724
  0.9681714511601562  0.6085842941741544  0.5802985840314276
  0.0318285708398382  0.3914157058258444  0.4197013869685738
  0.9681714511601566  0.3914157058258445  0.4197013869685738
  0.0318285708398381  0.6085842941741544  0.5802985840314276
  0.0318285708398382  0.1085842941741554  0.9197014159685724
  0.9681714511601563  0.8914157058258456  0.0802986130314263
  0.5318285488398434  0.3914157058258443  0.0802986130314263
  0.4681714221601575  0.6085842941741544  0.9197014159685724
  0.4681714221601575  0.1085842941741554  0.5802985840314276
  0.5318285488398434  0.8914157058258456  0.4197013869685738
  0.4681714221601575  0.8914157058258456  0.4197013869685738
  0.5318285488398435  0.1085842941741554  0.5802985840314276
  0.5318285488398434  0.6085842941741545  0.9197014159685724
  0.4681714221601575  0.3914157058258444  0.0802986130314263
  0.7733639357095153  0.5824372503333831  0.9280901441414720
  0.2266360642904844  0.4175627496666166  0.0719098558585283
  0.2266360642904844  0.9175627496666169  0.4280901441414717
  0.7733639357095153  0.0824372503333838  0.5719098558585282
  0.2266360642904844  0.0824372503333837  0.5719098558585282
  0.7733639357095153  0.9175627496666169  0.4280901441414717
  0.7733639357095153  0.4175627496666166  0.0719098558585284
  0.2266360642904844  0.5824372503333831  0.9280901441414720
  0.2733639357095157  0.0824372503333837  0.9280901441414720
  0.7266360642904847  0.9175627496666169  0.0719098558585284
  0.7266360642904847  0.4175627496666166  0.4280901441414717
  0.2733639357095157  0.5824372503333831  0.5719098558585282
  0.7266360642904847  0.5824372503333831  0.5719098558585282
  0.2733639357095157  0.4175627496666166  0.4280901441414717
  0.2733639357095157  0.9175627496666169  0.0719098558585283
  0.7266360642904847  0.0824372503333837  0.9280901441414720
  0.6650784682319184  0.5724497871109202  0.0834729214386506
  0.3349215317680819  0.4275502128890801  0.9165270785613491
  0.3349215317680819  0.9275502128890798  0.5834729214386509
  0.6650784682319184  0.0724497871109201  0.4165270785613493
  0.3349215317680819  0.0724497871109201  0.4165270785613493
  0.6650784682319184  0.9275502128890797  0.5834729214386509
  0.6650784682319184  0.4275502128890801  0.9165270785613491
  0.3349215317680819  0.5724497871109202  0.0834729214386506
  0.1650784682319182  0.0724497871109201  0.0834729214386506
  0.8349215317680816  0.9275502128890798  0.9165270785613491
  0.8349215317680816  0.4275502128890801  0.5834729214386509
  0.1650784682319182  0.5724497871109202  0.4165270785613493
  0.8349215317680816  0.5724497871109202  0.4165270785613493
  0.1650784682319183  0.4275502128890801  0.5834729214386509
  0.1650784682319182  0.9275502128890798  0.9165270785613491
  0.8349215317680816  0.0724497871109201  0.0834729214386506
  0.0000000000000000  0.4586374816449734  0.1861060077426805
  0.0000000000000000  0.5413625183550264  0.8138939622573169
  0.0000000000000000  0.0413625183550267  0.6861060377426831
  0.0000000000000000 -0.0413625183550268  0.3138939922573195
  0.5000000000000000 -0.0413625183550268  0.1861060077426805
  0.5000000000000000  0.0413625183550265  0.8138939622573169
  0.5000000000000000  0.5413625183550264  0.6861060377426831
  0.5000000000000000  0.4586374816449734  0.3138939922573195
  0.0000000000000000  0.6653843050661240  0.0924059663188481
  0.0000000000000000  0.3346156949338757 -0.0924059663188479
  0.0000000000000000 -0.1653843050661243 -0.4075940336811517
  0.0000000000000000  0.1653843050661243  0.4075940336811517
  0.5000000000000000  0.1653843050661243  0.0924059663188481
  0.5000000000000000 -0.1653843050661243 -0.0924059663188478
  0.5000000000000000  0.3346156949338756 -0.4075940336811517
  0.5000000000000000  0.6653843050661240  0.4075940336811519
  0.0000000000000000  0.4671697764020514 -0.0749841151599055
  0.0000000000000000  0.5328302235979484  0.0749841001599078
  0.0000000000000000  0.0328302235979486  0.4250158998400925
  0.0000000000000000 -0.0328302235979486 -0.4250158998400925
  0.5000000000000000 -0.0328302235979486 -0.0749841151599055
  0.5000000000000000  0.0328302235979487  0.0749841001599078
  0.5000000000000000  0.5328302235979484  0.4250158998400925
  0.5000000000000000  0.4671697764020514 -0.4250158998400925
  0.7188781804210924  0.5000000000000000 -0.0000000000000000
  0.2811218195789067  0.5000000000000000 -0.0000000000000000
  0.2811218195789067  0.0000000000000000  0.5000000000000000
  0.7188781804210924  0.0000000000000000  0.5000000000000000
  0.2188781804210931  0.0000000000000000 -0.0000000000000000
  0.7811218195789076  0.0000000000000000 -0.0000000000000000
  0.7811218195789076  0.5000000000000000  0.5000000000000000
  0.2188781804210931  0.5000000000000000  0.5000000000000000
 
  0.00000000E+00  0.00000000E+00  0.00000000E+00
  0.00000000E+00  0.00000000E+00  0.00000000E+00
  0.00000000E+00  0.00000000E+00  0.00000000E+00
  0.00000000E+00  0.00000000E+00  0.00000000E+00
  0.00000000E+00  0.00000000E+00  0.00000000E+00
  0.00000000E+00  0.00000000E+00  0.00000000E+00
  0.00000000E+00  0.00000000E+00  0.00000000E+00
  0.00000000E+00  0.00000000E+00  0.00000000E+00
  0.00000000E+00  0.00000000E+00  0.00000000E+00
  0.00000000E+00  0.00000000E+00  0.00000000E+00
  0.00000000E+00  0.00000000E+00  0.00000000E+00
  0.00000000E+00  0.00000000E+00  0.00000000E+00
  0.00000000E+00  0.00000000E+00  0.00000000E+00
  0.00000000E+00  0.00000000E+00  0.00000000E+00
  0.00000000E+00  0.00000000E+00  0.00000000E+00
  0.00000000E+00  0.00000000E+00  0.00000000E+00
  0.00000000E+00  0.00000000E+00  0.00000000E+00
  0.00000000E+00  0.00000000E+00  0.00000000E+00
  0.00000000E+00  0.00000000E+00  0.00000000E+00
  0.00000000E+00  0.00000000E+00  0.00000000E+00
  0.00000000E+00  0.00000000E+00  0.00000000E+00
  0.00000000E+00  0.00000000E+00  0.00000000E+00
  0.00000000E+00  0.00000000E+00  0.00000000E+00
  0.00000000E+00  0.00000000E+00  0.00000000E+00
  0.00000000E+00  0.00000000E+00  0.00000000E+00
  0.00000000E+00  0.00000000E+00  0.00000000E+00
  0.00000000E+00  0.00000000E+00  0.00000000E+00
  0.00000000E+00  0.00000000E+00  0.00000000E+00
  0.00000000E+00  0.00000000E+00  0.00000000E+00
  0.00000000E+00  0.00000000E+00  0.00000000E+00
  0.00000000E+00  0.00000000E+00  0.00000000E+00
  0.00000000E+00  0.00000000E+00  0.00000000E+00
  0.00000000E+00  0.00000000E+00  0.00000000E+00
  0.00000000E+00  0.00000000E+00  0.00000000E+00
  0.00000000E+00  0.00000000E+00  0.00000000E+00
  0.00000000E+00  0.00000000E+00  0.00000000E+00
  0.00000000E+00  0.00000000E+00  0.00000000E+00
  0.00000000E+00  0.00000000E+00  0.00000000E+00
  0.00000000E+00  0.00000000E+00  0.00000000E+00
  0.00000000E+00  0.00000000E+00  0.00000000E+00
  0.00000000E+00  0.00000000E+00  0.00000000E+00
  0.00000000E+00  0.00000000E+00  0.00000000E+00
  0.00000000E+00  0.00000000E+00  0.00000000E+00
  0.00000000E+00  0.00000000E+00  0.00000000E+00
  0.00000000E+00  0.00000000E+00  0.00000000E+00
  0.00000000E+00  0.00000000E+00  0.00000000E+00
  0.00000000E+00  0.00000000E+00  0.00000000E+00
  0.00000000E+00  0.00000000E+00  0.00000000E+00
  0.00000000E+00  0.00000000E+00  0.00000000E+00
  0.00000000E+00  0.00000000E+00  0.00000000E+00
  0.00000000E+00  0.00000000E+00  0.00000000E+00
  0.00000000E+00  0.00000000E+00  0.00000000E+00
  0.00000000E+00  0.00000000E+00  0.00000000E+00
  0.00000000E+00  0.00000000E+00  0.00000000E+00
  0.00000000E+00  0.00000000E+00  0.00000000E+00
  0.00000000E+00  0.00000000E+00  0.00000000E+00
  0.00000000E+00  0.00000000E+00  0.00000000E+00
  0.00000000E+00  0.00000000E+00  0.00000000E+00
  0.00000000E+00  0.00000000E+00  0.00000000E+00
  0.00000000E+00  0.00000000E+00  0.00000000E+00
  0.00000000E+00  0.00000000E+00  0.00000000E+00
  0.00000000E+00  0.00000000E+00  0.00000000E+00
  0.00000000E+00  0.00000000E+00  0.00000000E+00
  0.00000000E+00  0.00000000E+00  0.00000000E+00
  0.00000000E+00  0.00000000E+00  0.00000000E+00
  0.00000000E+00  0.00000000E+00  0.00000000E+00
  0.00000000E+00  0.00000000E+00  0.00000000E+00
  0.00000000E+00  0.00000000E+00  0.00000000E+00
  0.00000000E+00  0.00000000E+00  0.00000000E+00
  0.00000000E+00  0.00000000E+00  0.00000000E+00
  0.00000000E+00  0.00000000E+00  0.00000000E+00
  0.00000000E+00  0.00000000E+00  0.00000000E+00
  0.00000000E+00  0.00000000E+00  0.00000000E+00
  0.00000000E+00  0.00000000E+00  0.00000000E+00
  0.00000000E+00  0.00000000E+00  0.00000000E+00
  0.00000000E+00  0.00000000E+00  0.00000000E+00
  0.00000000E+00  0.00000000E+00  0.00000000E+00
  0.00000000E+00  0.00000000E+00  0.00000000E+00
  0.00000000E+00  0.00000000E+00  0.00000000E+00
  0.00000000E+00  0.00000000E+00  0.00000000E+00
