methane-low                             
  0.993288388000000     
    11.7079000473000008    0.0000000000000000    0.0000000000000000
     0.0000000000000000    8.1892995834000004    0.0000000000000000
     0.0000000000000000    0.0000000000000000    8.1842002868999995
   H    C 
    64    16
Direct
  0.0263806386347522  0.8125939156050308  0.1492974630572597
  0.9736193833652426  0.1874060843949693  0.8507025659427396
  0.9736193833652426  0.6874060843949692  0.6492974340572604
  0.0263806386347522  0.3125939156050307  0.3507025369427406
  0.9736193833652426  0.3125939156050307  0.3507025369427405
  0.0263806386347522  0.6874060843949692  0.6492974340572604
  0.0263806386347522  0.1874060843949693  0.8507025659427396
  0.9736193833652426  0.8125939156050308  0.1492974630572597
  0.5263806166347574  0.3125939156050307  0.1492974630572597
  0.4736193543652438  0.6874060843949692  0.8507025659427396
  0.4736193543652437  0.1874060843949693  0.6492974340572604
  0.5263806166347574  0.8125939156050308  0.3507025369427406
  0.4736193543652438  0.8125939156050308  0.3507025369427405
  0.5263806166347574  0.1874060843949693  0.6492974340572604
  0.5263806166347574  0.6874060843949692  0.8507025659427396
  0.4736193543652438  0.3125939156050307  0.1492974630572597
  0.7891535169038227  0.5817588335489011  0.9309827432375409
  0.2108464830961770  0.4182411664510993  0.0690172567624593
  0.2108464830961770  0.9182411664510989  0.4309827432375407
  0.7891535169038227  0.0817588335489007  0.5690172567624591
  0.2108464830961770  0.0817588335489007  0.5690172567624591
  0.7891535169038227  0.9182411664510989  0.4309827432375407
  0.7891535169038227  0.4182411664510993  0.0690172567624593
  0.2108464830961770  0.5817588335489011  0.9309827432375409
  0.2891535169038228  0.0817588335489007  0.9309827432375409
  0.7108464830961773  0.9182411664510989  0.0690172567624593
  0.7108464830961773  0.4182411664510993  0.4309827432375407
  0.2891535169038228  0.5817588335489011  0.5690172567624591
  0.7108464830961773  0.5817588335489011  0.5690172567624591
  0.2891535169038228  0.4182411664510993  0.4309827432375407
  0.2891535169038228  0.9182411664510989  0.0690172567624593
  0.7108464830961773  0.0817588335489007  0.9309827432375409
  0.6814828473548048  0.5710592231604770  0.0831955512937524
  0.3185171526451956  0.4289407768395231  0.9168044487062474
  0.3185171526451956  0.9289407768395230  0.5831955512937524
  0.6814828473548048  0.0710592231604769  0.4168044487062475
  0.3185171526451956  0.0710592231604769  0.4168044487062475
  0.6814828473548049  0.9289407768395230  0.5831955512937524
  0.6814828473548048  0.4289407768395231  0.9168044487062474
  0.3185171526451956  0.5710592231604770  0.0831955512937524
  0.1814828473548046  0.0710592231604769  0.0831955512937524
  0.8185171526451952  0.9289407768395230  0.9168044487062474
  0.8185171526451952  0.4289407768395231  0.5831955512937524
  0.1814828473548046  0.5710592231604770  0.4168044487062475
  0.8185171526451952  0.5710592231604770  0.4168044487062475
  0.1814828473548046  0.4289407768395231  0.5831955512937524
  0.1814828473548046  0.9289407768395230  0.9168044487062474
  0.8185171526451953  0.0710592231604769  0.0831955512937524
  0.0000000000000000  0.4884908446428919  0.2433528506860560
  0.0000000000000000  0.5115091553571082  0.7566471193139418
  0.0000000000000000  0.0115091553571080  0.7433528806860582
  0.0000000000000000 -0.0115091553571081  0.2566471493139439
  0.5000000000000000 -0.0115091553571081  0.2433528506860560
  0.5000000000000000  0.0115091553571080  0.7566471193139417
  0.5000000000000000  0.5115091553571082  0.7433528806860582
  0.5000000000000000  0.4884908446428921  0.2566471493139439
  0.0000000000000000  0.6415300308021628  0.0977376866729689
  0.0000000000000000  0.3584699691978374 -0.0977376866729691
  0.0000000000000000 -0.1415300308021624 -0.4022623133270309
  0.0000000000000000  0.1415300308021626  0.4022623133270311
  0.5000000000000000  0.1415300308021626  0.0977376866729689
  0.5000000000000000 -0.1415300308021626 -0.0977376866729692
  0.5000000000000000  0.3584699691978374 -0.4022623133270309
  0.5000000000000000  0.6415300308021626  0.4022623133270311
  0.0000000000000000  0.4872913573375887 -0.0747877742392169
  0.0000000000000000  0.5127086426624111  0.0747877592392194
  0.0000000000000000  0.0127086426624111  0.4252122407607806
  0.0000000000000000 -0.0127086426624111 -0.4252122407607806
  0.5000000000000000 -0.0127086426624111 -0.0747877742392170
  0.5000000000000000  0.0127086426624111  0.0747877592392194
  0.5000000000000000  0.5127086426624111  0.4252122407607807
  0.5000000000000000  0.4872913573375888 -0.4252122407607806
  0.7322552474852511  0.5000000000000000  0.0000000000000000
  0.2677447525147483  0.5000000000000000  0.0000000000000000
  0.2677447525147483  0.0000000000000000  0.5000000000000000
  0.7322552474852511  0.0000000000000000  0.5000000000000000
  0.2322552474852517  0.0000000000000000  0.0000000000000000
  0.7677447525147489  0.0000000000000000  0.0000000000000000
  0.7677447525147489  0.5000000000000000  0.5000000000000000
  0.2322552474852517  0.5000000000000000  0.5000000000000000
 
  0.00000000E+00  0.00000000E+00  0.00000000E+00
  0.00000000E+00  0.00000000E+00  0.00000000E+00
  0.00000000E+00  0.00000000E+00  0.00000000E+00
  0.00000000E+00  0.00000000E+00  0.00000000E+00
  0.00000000E+00  0.00000000E+00  0.00000000E+00
  0.00000000E+00  0.00000000E+00  0.00000000E+00
  0.00000000E+00  0.00000000E+00  0.00000000E+00
  0.00000000E+00  0.00000000E+00  0.00000000E+00
  0.00000000E+00  0.00000000E+00  0.00000000E+00
  0.00000000E+00  0.00000000E+00  0.00000000E+00
  0.00000000E+00  0.00000000E+00  0.00000000E+00
  0.00000000E+00  0.00000000E+00  0.00000000E+00
  0.00000000E+00  0.00000000E+00  0.00000000E+00
  0.00000000E+00  0.00000000E+00  0.00000000E+00
  0.00000000E+00  0.00000000E+00  0.00000000E+00
  0.00000000E+00  0.00000000E+00  0.00000000E+00
  0.00000000E+00  0.00000000E+00  0.00000000E+00
  0.00000000E+00  0.00000000E+00  0.00000000E+00
  0.00000000E+00  0.00000000E+00  0.00000000E+00
  0.00000000E+00  0.00000000E+00  0.00000000E+00
  0.00000000E+00  0.00000000E+00  0.00000000E+00
  0.00000000E+00  0.00000000E+00  0.00000000E+00
  0.00000000E+00  0.00000000E+00  0.00000000E+00
  0.00000000E+00  0.00000000E+00  0.00000000E+00
  0.00000000E+00  0.00000000E+00  0.00000000E+00
  0.00000000E+00  0.00000000E+00  0.00000000E+00
  0.00000000E+00  0.00000000E+00  0.00000000E+00
  0.00000000E+00  0.00000000E+00  0.00000000E+00
  0.00000000E+00  0.00000000E+00  0.00000000E+00
  0.00000000E+00  0.00000000E+00  0.00000000E+00
  0.00000000E+00  0.00000000E+00  0.00000000E+00
  0.00000000E+00  0.00000000E+00  0.00000000E+00
  0.00000000E+00  0.00000000E+00  0.00000000E+00
  0.00000000E+00  0.00000000E+00  0.00000000E+00
  0.00000000E+00  0.00000000E+00  0.00000000E+00
  0.00000000E+00  0.00000000E+00  0.00000000E+00
  0.00000000E+00  0.00000000E+00  0.00000000E+00
  0.00000000E+00  0.00000000E+00  0.00000000E+00
  0.00000000E+00  0.00000000E+00  0.00000000E+00
  0.00000000E+00  0.00000000E+00  0.00000000E+00
  0.00000000E+00  0.00000000E+00  0.00000000E+00
  0.00000000E+00  0.00000000E+00  0.00000000E+00
  0.00000000E+00  0.00000000E+00  0.00000000E+00
  0.00000000E+00  0.00000000E+00  0.00000000E+00
  0.00000000E+00  0.00000000E+00  0.00000000E+00
  0.00000000E+00  0.00000000E+00  0.00000000E+00
  0.00000000E+00  0.00000000E+00  0.00000000E+00
  0.00000000E+00  0.00000000E+00  0.00000000E+00
  0.00000000E+00  0.00000000E+00  0.00000000E+00
  0.00000000E+00  0.00000000E+00  0.00000000E+00
  0.00000000E+00  0.00000000E+00  0.00000000E+00
  0.00000000E+00  0.00000000E+00  0.00000000E+00
  0.00000000E+00  0.00000000E+00  0.00000000E+00
  0.00000000E+00  0.00000000E+00  0.00000000E+00
  0.00000000E+00  0.00000000E+00  0.00000000E+00
  0.00000000E+00  0.00000000E+00  0.00000000E+00
  0.00000000E+00  0.00000000E+00  0.00000000E+00
  0.00000000E+00  0.00000000E+00  0.00000000E+00
  0.00000000E+00  0.00000000E+00  0.00000000E+00
  0.00000000E+00  0.00000000E+00  0.00000000E+00
  0.00000000E+00  0.00000000E+00  0.00000000E+00
  0.00000000E+00  0.00000000E+00  0.00000000E+00
  0.00000000E+00  0.00000000E+00  0.00000000E+00
  0.00000000E+00  0.00000000E+00  0.00000000E+00
  0.00000000E+00  0.00000000E+00  0.00000000E+00
  0.00000000E+00  0.00000000E+00  0.00000000E+00
  0.00000000E+00  0.00000000E+00  0.00000000E+00
  0.00000000E+00  0.00000000E+00  0.00000000E+00
  0.00000000E+00  0.00000000E+00  0.00000000E+00
  0.00000000E+00  0.00000000E+00  0.00000000E+00
  0.00000000E+00  0.00000000E+00  0.00000000E+00
  0.00000000E+00  0.00000000E+00  0.00000000E+00
  0.00000000E+00  0.00000000E+00  0.00000000E+00
  0.00000000E+00  0.00000000E+00  0.00000000E+00
  0.00000000E+00  0.00000000E+00  0.00000000E+00
  0.00000000E+00  0.00000000E+00  0.00000000E+00
  0.00000000E+00  0.00000000E+00  0.00000000E+00
  0.00000000E+00  0.00000000E+00  0.00000000E+00
  0.00000000E+00  0.00000000E+00  0.00000000E+00
  0.00000000E+00  0.00000000E+00  0.00000000E+00
