methane-low                             
  0.993288388000000     
    11.7079000473000008    0.0000000000000000    0.0000000000000000
     0.0000000000000000    8.1892995834000004    0.0000000000000000
     0.0000000000000000    0.0000000000000000    8.1842002868999995
   H    C 
    64    16
Direct
  0.0771026115118167  0.8177338615028421  0.1656244594030589
  0.9228974104881780  0.1822661384971579  0.8343755695969399
  0.9228974104881780  0.6822661384971579  0.6656244304030601
  0.0771026115118167  0.3177338615028422  0.3343755405969411
  0.9228974104881780  0.3177338615028422  0.3343755405969411
  0.0771026115118167  0.6822661384971579  0.6656244304030601
  0.0771026115118167  0.1822661384971579  0.8343755695969399
  0.9228974104881780  0.8177338615028421  0.1656244594030589
  0.5771025895118220  0.3177338615028422  0.1656244594030589
  0.4228973814881792  0.6822661384971579  0.8343755695969399
  0.4228973814881792  0.1822661384971579  0.6656244304030601
  0.5771025895118220  0.8177338615028421  0.3343755405969411
  0.4228973814881792  0.8177338615028421  0.3343755405969411
  0.5771025895118220  0.1822661384971579  0.6656244304030601
  0.5771025895118220  0.6822661384971579  0.8343755695969399
  0.4228973814881792  0.3177338615028422  0.1656244594030589
  0.8124482723880670  0.5854802624645450  0.9309593425076241
  0.1875517276119330  0.4145197375354551  0.0690406574923758
  0.1875517276119330  0.9145197375354550  0.4309593425076242
  0.8124482723880670  0.0854802624645449  0.5690406574923759
  0.1875517276119330  0.0854802624645449  0.5690406574923759
  0.8124482723880670  0.9145197375354550  0.4309593425076242
  0.8124482723880670  0.4145197375354551  0.0690406574923758
  0.1875517276119330  0.5854802624645450  0.9309593425076241
  0.3124482723880670  0.0854802624645449  0.9309593425076241
  0.6875517276119330  0.9145197375354550  0.0690406574923758
  0.6875517276119330  0.4145197375354551  0.4309593425076242
  0.3124482723880670  0.5854802624645450  0.5690406574923759
  0.6875517276119330  0.5854802624645450  0.5690406574923759
  0.3124482723880670  0.4145197375354551  0.4309593425076242
  0.3124482723880670  0.9145197375354550  0.0690406574923758
  0.6875517276119330  0.0854802624645449  0.9309593425076241
  0.7036581141990539  0.5693252796385105  0.0853561285456817
  0.2963418858009461  0.4306747203614896  0.9146438714543182
  0.2963418858009461  0.9306747203614895  0.5853561285456818
  0.7036581141990539  0.0693252796385104  0.4146438714543183
  0.2963418858009461  0.0693252796385104  0.4146438714543183
  0.7036581141990539  0.9306747203614895  0.5853561285456818
  0.7036581141990539  0.4306747203614896  0.9146438714543182
  0.2963418858009461  0.5693252796385105  0.0853561285456817
  0.2036581141990539  0.0693252796385104  0.0853561285456817
  0.7963418858009461  0.9306747203614895  0.9146438714543182
  0.7963418858009461  0.4306747203614896  0.5853561285456818
  0.2036581141990539  0.5693252796385105  0.4146438714543183
  0.7963418858009461  0.5693252796385105  0.4146438714543183
  0.2036581141990539  0.4306747203614896  0.5853561285456818
  0.2036581141990539  0.9306747203614895  0.9146438714543182
  0.7963418858009461  0.0693252796385104  0.0853561285456817
 -0.0000000000000000  0.6286083448934917  0.1418144504455868
 -0.0000000000000000  0.3713916551065083  0.8581855195544107
 -0.0000000000000000  0.8713916551065083  0.6418144804455893
 -0.0000000000000000  0.1286083448934917  0.3581855495544132
  0.5000000000000000  0.1286083448934917  0.1418144504455868
  0.5000000000000000  0.8713916551065083  0.8581855195544107
  0.5000000000000000  0.3713916551065083  0.6418144804455893
  0.5000000000000000  0.6286083448934917  0.3581855495544132
 -0.0000000000000000  0.2775822718458473  0.5198200900693426
 -0.0000000000000000  0.7224177281541526  0.4801799099306575
 -0.0000000000000000  0.2224177281541527  0.0198200900693425
 -0.0000000000000000  0.7775822718458474  0.9801799099306574
  0.5000000000000000  0.7775822718458474  0.5198200900693426
  0.5000000000000000  0.2224177281541527  0.4801799099306575
  0.5000000000000000  0.7224177281541526  0.0198200900693425
  0.5000000000000000  0.2775822718458473  0.9801799099306574
 -0.0000000000000000  0.2603443729124204  0.3861535744942821
 -0.0000000000000000  0.7396556270875798  0.6138464105057202
 -0.0000000000000000  0.2396556270875797  0.8861535894942798
 -0.0000000000000000  0.7603443729124202  0.1138464105057202
  0.5000000000000000  0.7603443729124202  0.3861535744942821
  0.5000000000000000  0.2396556270875797  0.6138464105057202
  0.5000000000000000  0.7396556270875798  0.8861535894942798
  0.5000000000000000  0.2603443729124204  0.1138464105057202
  0.7580290959313124  0.5000000000000000 -0.0000000000000000
  0.2419709040686876  0.5000000000000000 -0.0000000000000000
  0.2419709040686876  0.0000000000000000  0.5000000000000000
  0.7580290959313124  0.0000000000000000  0.5000000000000000
  0.2580290959313124  0.0000000000000000 -0.0000000000000000
  0.7419709040686876  0.0000000000000000 -0.0000000000000000
  0.7419709040686876  0.5000000000000000  0.5000000000000000
  0.2580290959313124  0.5000000000000000  0.5000000000000000
 
  0.00000000E+00  0.00000000E+00  0.00000000E+00
  0.00000000E+00  0.00000000E+00  0.00000000E+00
  0.00000000E+00  0.00000000E+00  0.00000000E+00
  0.00000000E+00  0.00000000E+00  0.00000000E+00
  0.00000000E+00  0.00000000E+00  0.00000000E+00
  0.00000000E+00  0.00000000E+00  0.00000000E+00
  0.00000000E+00  0.00000000E+00  0.00000000E+00
  0.00000000E+00  0.00000000E+00  0.00000000E+00
  0.00000000E+00  0.00000000E+00  0.00000000E+00
  0.00000000E+00  0.00000000E+00  0.00000000E+00
  0.00000000E+00  0.00000000E+00  0.00000000E+00
  0.00000000E+00  0.00000000E+00  0.00000000E+00
  0.00000000E+00  0.00000000E+00  0.00000000E+00
  0.00000000E+00  0.00000000E+00  0.00000000E+00
  0.00000000E+00  0.00000000E+00  0.00000000E+00
  0.00000000E+00  0.00000000E+00  0.00000000E+00
  0.00000000E+00  0.00000000E+00  0.00000000E+00
  0.00000000E+00  0.00000000E+00  0.00000000E+00
  0.00000000E+00  0.00000000E+00  0.00000000E+00
  0.00000000E+00  0.00000000E+00  0.00000000E+00
  0.00000000E+00  0.00000000E+00  0.00000000E+00
  0.00000000E+00  0.00000000E+00  0.00000000E+00
  0.00000000E+00  0.00000000E+00  0.00000000E+00
  0.00000000E+00  0.00000000E+00  0.00000000E+00
  0.00000000E+00  0.00000000E+00  0.00000000E+00
  0.00000000E+00  0.00000000E+00  0.00000000E+00
  0.00000000E+00  0.00000000E+00  0.00000000E+00
  0.00000000E+00  0.00000000E+00  0.00000000E+00
  0.00000000E+00  0.00000000E+00  0.00000000E+00
  0.00000000E+00  0.00000000E+00  0.00000000E+00
  0.00000000E+00  0.00000000E+00  0.00000000E+00
  0.00000000E+00  0.00000000E+00  0.00000000E+00
  0.00000000E+00  0.00000000E+00  0.00000000E+00
  0.00000000E+00  0.00000000E+00  0.00000000E+00
  0.00000000E+00  0.00000000E+00  0.00000000E+00
  0.00000000E+00  0.00000000E+00  0.00000000E+00
  0.00000000E+00  0.00000000E+00  0.00000000E+00
  0.00000000E+00  0.00000000E+00  0.00000000E+00
  0.00000000E+00  0.00000000E+00  0.00000000E+00
  0.00000000E+00  0.00000000E+00  0.00000000E+00
  0.00000000E+00  0.00000000E+00  0.00000000E+00
  0.00000000E+00  0.00000000E+00  0.00000000E+00
  0.00000000E+00  0.00000000E+00  0.00000000E+00
  0.00000000E+00  0.00000000E+00  0.00000000E+00
  0.00000000E+00  0.00000000E+00  0.00000000E+00
  0.00000000E+00  0.00000000E+00  0.00000000E+00
  0.00000000E+00  0.00000000E+00  0.00000000E+00
  0.00000000E+00  0.00000000E+00  0.00000000E+00
  0.00000000E+00  0.00000000E+00  0.00000000E+00
  0.00000000E+00  0.00000000E+00  0.00000000E+00
  0.00000000E+00  0.00000000E+00  0.00000000E+00
  0.00000000E+00  0.00000000E+00  0.00000000E+00
  0.00000000E+00  0.00000000E+00  0.00000000E+00
  0.00000000E+00  0.00000000E+00  0.00000000E+00
  0.00000000E+00  0.00000000E+00  0.00000000E+00
  0.00000000E+00  0.00000000E+00  0.00000000E+00
  0.00000000E+00  0.00000000E+00  0.00000000E+00
  0.00000000E+00  0.00000000E+00  0.00000000E+00
  0.00000000E+00  0.00000000E+00  0.00000000E+00
  0.00000000E+00  0.00000000E+00  0.00000000E+00
  0.00000000E+00  0.00000000E+00  0.00000000E+00
  0.00000000E+00  0.00000000E+00  0.00000000E+00
  0.00000000E+00  0.00000000E+00  0.00000000E+00
  0.00000000E+00  0.00000000E+00  0.00000000E+00
  0.00000000E+00  0.00000000E+00  0.00000000E+00
  0.00000000E+00  0.00000000E+00  0.00000000E+00
  0.00000000E+00  0.00000000E+00  0.00000000E+00
  0.00000000E+00  0.00000000E+00  0.00000000E+00
  0.00000000E+00  0.00000000E+00  0.00000000E+00
  0.00000000E+00  0.00000000E+00  0.00000000E+00
  0.00000000E+00  0.00000000E+00  0.00000000E+00
  0.00000000E+00  0.00000000E+00  0.00000000E+00
  0.00000000E+00  0.00000000E+00  0.00000000E+00
  0.00000000E+00  0.00000000E+00  0.00000000E+00
  0.00000000E+00  0.00000000E+00  0.00000000E+00
  0.00000000E+00  0.00000000E+00  0.00000000E+00
  0.00000000E+00  0.00000000E+00  0.00000000E+00
  0.00000000E+00  0.00000000E+00  0.00000000E+00
  0.00000000E+00  0.00000000E+00  0.00000000E+00
  0.00000000E+00  0.00000000E+00  0.00000000E+00
