C
   1.0
     5.3352160587640860    0.0000000000000000    0.0000000000000000
     2.6676080292800819    4.6204326415876995    0.0000000000000000
     2.6676080292800819    1.5401442137945924    4.3561856703357460
  16
Direct
  0.0018743383379148  0.0000000000000000  0.0000000000000000
  0.5000000000000000  0.0000000000000000  0.0000000000000000
  0.0000000000000000  0.5000000000000000  0.0000000000000000
  0.5000000000000000  0.5000000000000000  0.0000000000000000
  0.0000000000000000  0.0000000000000000  0.5000000000000000
  0.5000000000000000  0.0000000000000000  0.5000000000000000
  0.0000000000000001  0.5000000000000000  0.5000000000000000
  0.5000000000000000  0.5000000000000000  0.5000000000000000
  0.1250000000000000  0.1250000000000000  0.1249999925000000
  0.6250000000000000  0.1250000000000000  0.1249999925000000
  0.1250000000000000  0.6250000000000000  0.1249999925000000
  0.6250000000000000  0.6250000000000000  0.1249999925000000
  0.1250000000000001  0.1250000000000000  0.6249999925000000
  0.6250000000000000  0.1250000000000000  0.6249999925000000
  0.1250000000000001  0.6250000000000000  0.6249999925000000
  0.6250000000000000  0.6250000000000000  0.6249999925000000
