Methane
1.0
        10.000000000         0.0000000000         0.0000000000
        0.0000000000         10.000000000         0.0000000000
        0.0000000000         0.0000000000         10.000000000
    H    C
    4    1
Cartesian
     0.863974094         0.597846627         0.867893398
     0.716452122         0.899999976         0.132106602
     0.775424421         0.099999994         0.236470312
     0.136025935         0.500000000         0.528916478
     0.622980535         0.524473071         0.441369504
