C6 H6                                   
  0.993288388000000     
     7.3550000000000004    0.0000000000000000    0.0000000000000000
     0.0000000000000000    9.3710000000000004    0.0000000000000000
     0.0000000000000000    0.0000000000000000    6.7000000000000002
   C    H 
    24    24
Direct
  0.9443111057006343  0.1436934919803388  0.0026373084771818
  0.0556888752993677  0.8563065080196609 -0.0026372824771797
  0.5556888942993657  0.8563065080196609  0.5026372794771760
  0.4443111357006297  0.1436934919803388  0.4973626915228183
  0.0556888752993677  0.6436934919803391  0.4973626915228181
  0.9443111057006343  0.3563065080196611  0.5026372794771760
  0.4443111357006297  0.3563065080196611 -0.0026372824771797
  0.5556888942993657  0.6436934919803391  0.0026373084771818
  0.0791159988985958  0.0958439228164808  0.1357969796585497
  0.9208840161014017  0.9041560541835209  0.8642029903414480
  0.4208840161014019  0.9041560541835209  0.6357970096585520
  0.5791159838985983  0.0958439228164808  0.3642030203414501
  0.9208840161014016  0.5958439458164791  0.3642030203414501
  0.0791159988985958  0.4041560841835232  0.6357970096585520
  0.5791159838985983  0.4041560841835232  0.8642029903414480
  0.4208840161014019  0.5958439458164791  0.1357969796585497
  0.8648615938510522  0.0477138575833089  0.8666324962354753
  0.1351384061489475  0.9522861204166891  0.1333675037645246
  0.6351384061489478  0.9522861204166891  0.3666324962354755
  0.3648615938510524  0.0477138575833089  0.6333675037645247
  0.1351384061489475  0.5477138795833109  0.6333675037645247
  0.8648615938510522  0.4522861494166880  0.3666324962354755
  0.3648615938510524  0.4522861494166880  0.1333675037645246
  0.6351384061489478  0.5477138795833109  0.8666324962354753
  0.9014938536975053  0.2559125510569843  0.0048963408278646
  0.0985061313024970  0.7440874629430100 -0.0048963118278658
  0.5985061463024947  0.7440874629430100  0.5048963118278658
  0.4014938536975054  0.2559125510569844  0.4951036591721354
  0.0985061313024970  0.7559125370569900  0.4951036591721354
  0.9014938536975053  0.2440874629430098  0.5048963118278658
  0.4014938536975054  0.2440874629430098 -0.0048963118278658
  0.5985061463024947  0.7559125370569900  0.0048963408278646
  0.1403548133231154  0.1700970774932509  0.2429102109225769
  0.8596451726768837  0.8299029075067443  0.7570897740774251
  0.3596451726768833  0.8299029075067443  0.7429102259225749
  0.6403548273231163  0.1700970774932509  0.2570897740774256
  0.8596451726768837  0.6700970924932557  0.2570897740774256
  0.1403548133231154  0.3299029075067443  0.7429102259225749
  0.6403548273231163  0.3299029075067443  0.7570897740774251
  0.3596451726768833  0.6700970924932557  0.2429102109225769
  0.7588506805765706  0.0835829625460813  0.7626813716188768
  0.2411493044234321  0.9164170524539231  0.2373186433811208
  0.7411493194234294  0.9164170524539231  0.2626813716188771
  0.2588506805765702  0.0835829625460813  0.7373186283811232
  0.2411493044234321  0.5835829475460769  0.7373186283811232
  0.7588506805765706  0.4164170524539234  0.2626813716188771
  0.2588506805765702  0.4164170524539234  0.2373186433811208
  0.7411493194234294  0.5835829475460769  0.7626813716188768
 
  0.00000000E+00  0.00000000E+00  0.00000000E+00
  0.00000000E+00  0.00000000E+00  0.00000000E+00
  0.00000000E+00  0.00000000E+00  0.00000000E+00
  0.00000000E+00  0.00000000E+00  0.00000000E+00
  0.00000000E+00  0.00000000E+00  0.00000000E+00
  0.00000000E+00  0.00000000E+00  0.00000000E+00
  0.00000000E+00  0.00000000E+00  0.00000000E+00
  0.00000000E+00  0.00000000E+00  0.00000000E+00
  0.00000000E+00  0.00000000E+00  0.00000000E+00
  0.00000000E+00  0.00000000E+00  0.00000000E+00
  0.00000000E+00  0.00000000E+00  0.00000000E+00
  0.00000000E+00  0.00000000E+00  0.00000000E+00
  0.00000000E+00  0.00000000E+00  0.00000000E+00
  0.00000000E+00  0.00000000E+00  0.00000000E+00
  0.00000000E+00  0.00000000E+00  0.00000000E+00
  0.00000000E+00  0.00000000E+00  0.00000000E+00
  0.00000000E+00  0.00000000E+00  0.00000000E+00
  0.00000000E+00  0.00000000E+00  0.00000000E+00
  0.00000000E+00  0.00000000E+00  0.00000000E+00
  0.00000000E+00  0.00000000E+00  0.00000000E+00
  0.00000000E+00  0.00000000E+00  0.00000000E+00
  0.00000000E+00  0.00000000E+00  0.00000000E+00
  0.00000000E+00  0.00000000E+00  0.00000000E+00
  0.00000000E+00  0.00000000E+00  0.00000000E+00
  0.00000000E+00  0.00000000E+00  0.00000000E+00
  0.00000000E+00  0.00000000E+00  0.00000000E+00
  0.00000000E+00  0.00000000E+00  0.00000000E+00
  0.00000000E+00  0.00000000E+00  0.00000000E+00
  0.00000000E+00  0.00000000E+00  0.00000000E+00
  0.00000000E+00  0.00000000E+00  0.00000000E+00
  0.00000000E+00  0.00000000E+00  0.00000000E+00
  0.00000000E+00  0.00000000E+00  0.00000000E+00
  0.00000000E+00  0.00000000E+00  0.00000000E+00
  0.00000000E+00  0.00000000E+00  0.00000000E+00
  0.00000000E+00  0.00000000E+00  0.00000000E+00
  0.00000000E+00  0.00000000E+00  0.00000000E+00
  0.00000000E+00  0.00000000E+00  0.00000000E+00
  0.00000000E+00  0.00000000E+00  0.00000000E+00
  0.00000000E+00  0.00000000E+00  0.00000000E+00
  0.00000000E+00  0.00000000E+00  0.00000000E+00
  0.00000000E+00  0.00000000E+00  0.00000000E+00
  0.00000000E+00  0.00000000E+00  0.00000000E+00
  0.00000000E+00  0.00000000E+00  0.00000000E+00
  0.00000000E+00  0.00000000E+00  0.00000000E+00
  0.00000000E+00  0.00000000E+00  0.00000000E+00
  0.00000000E+00  0.00000000E+00  0.00000000E+00
  0.00000000E+00  0.00000000E+00  0.00000000E+00
  0.00000000E+00  0.00000000E+00  0.00000000E+00
