C6 H6                                   
  0.993288388000000     
     7.3550000000000004    0.0000000000000000    0.0000000000000000
     0.0000000000000000    9.3710000000000004    0.0000000000000000
     0.0000000000000000    0.0000000000000000    6.7000000000000002
   C    H 
    24    24
Direct
  0.9444096463263152  0.1436872118258163  0.0025473847173745
  0.0555903346736869  0.8563127881741835 -0.0025473587173723
  0.5555903536736848  0.8563127881741835  0.5025473557173685
  0.4444096763263106  0.1436872118258163  0.4974526152826256
  0.0555903346736869  0.6436872118258165  0.4974526152826255
  0.9444096463263152  0.3563127881741837  0.5025473557173685
  0.4444096763263106  0.3563127881741837 -0.0025473587173723
  0.5555903536736848  0.6436872118258165  0.0025473847173745
  0.0790568005216632  0.0957657515842666  0.1358732977195227
  0.9209432144783344  0.9042342254157351  0.8641266722804749
  0.4209432144783345  0.9042342254157351  0.6358733277195251
  0.5790567855216656  0.0957657515842666  0.3641267022804772
  0.9209432144783343  0.5957657745842649  0.3641267022804772
  0.0790568005216632  0.4042342554157374  0.6358733277195251
  0.5790567855216656  0.4042342554157374  0.8641266722804749
  0.4209432144783345  0.5957657745842649  0.1358732977195227
  0.8648074761175041  0.0477458385044517  0.8666353339701930
  0.1351925238824957  0.9522541394955464  0.1333646660298070
  0.6351925238824959  0.9522541394955464  0.3666353339701932
  0.3648074761175042  0.0477458385044517  0.6333646660298070
  0.1351925238824957  0.5477458605044536  0.6333646660298070
  0.8648074761175041  0.4522541684955453  0.3666353339701932
  0.3648074761175042  0.4522541684955453  0.1333646660298070
  0.6351925238824959  0.5477458605044536  0.8666353339701930
  0.9015526498786967  0.2558981557638410  0.0048448123584298
  0.0984473351213057  0.7441018582361533 -0.0048447833584310
  0.5984473501213033  0.7441018582361533  0.5048447833584310
  0.4015526498786967  0.2558981557638410  0.4951551876415702
  0.0984473351213057  0.7558981417638467  0.4951551876415702
  0.9015526498786967  0.2441018582361532  0.5048447833584310
  0.4015526498786967  0.2441018582361532 -0.0048447833584310
  0.5984473501213033  0.7558981417638467  0.0048448123584298
  0.1403501333863921  0.1700733843978968  0.2428598281551970
  0.8596498526136069  0.8299266006020983  0.7571401568448050
  0.3596498526136066  0.8299266006020983  0.7428598431551950
  0.6403501473863931  0.1700733843978968  0.2571401568448053
  0.8596498526136069  0.6700733993979017  0.2571401568448053
  0.1403501333863921  0.3299266006020984  0.7428598431551950
  0.6403501473863931  0.3299266006020984  0.7571401568448050
  0.3596498526136066  0.6700733993979017  0.2428598281551971
  0.7589285641451248  0.0836005460572321  0.7625706911903368
  0.2410714208548778  0.9163994689427724  0.2374293238096609
  0.7410714358548752  0.9163994689427724  0.2625706911903370
  0.2589285641451245  0.0836005460572321  0.7374293088096632
  0.2410714208548778  0.5836005310572276  0.7374293088096632
  0.7589285641451248  0.4163994689427726  0.2625706911903370
  0.2589285641451245  0.4163994689427726  0.2374293238096609
  0.7410714358548752  0.5836005310572276  0.7625706911903368
 
  0.00000000E+00  0.00000000E+00  0.00000000E+00
  0.00000000E+00  0.00000000E+00  0.00000000E+00
  0.00000000E+00  0.00000000E+00  0.00000000E+00
  0.00000000E+00  0.00000000E+00  0.00000000E+00
  0.00000000E+00  0.00000000E+00  0.00000000E+00
  0.00000000E+00  0.00000000E+00  0.00000000E+00
  0.00000000E+00  0.00000000E+00  0.00000000E+00
  0.00000000E+00  0.00000000E+00  0.00000000E+00
  0.00000000E+00  0.00000000E+00  0.00000000E+00
  0.00000000E+00  0.00000000E+00  0.00000000E+00
  0.00000000E+00  0.00000000E+00  0.00000000E+00
  0.00000000E+00  0.00000000E+00  0.00000000E+00
  0.00000000E+00  0.00000000E+00  0.00000000E+00
  0.00000000E+00  0.00000000E+00  0.00000000E+00
  0.00000000E+00  0.00000000E+00  0.00000000E+00
  0.00000000E+00  0.00000000E+00  0.00000000E+00
  0.00000000E+00  0.00000000E+00  0.00000000E+00
  0.00000000E+00  0.00000000E+00  0.00000000E+00
  0.00000000E+00  0.00000000E+00  0.00000000E+00
  0.00000000E+00  0.00000000E+00  0.00000000E+00
  0.00000000E+00  0.00000000E+00  0.00000000E+00
  0.00000000E+00  0.00000000E+00  0.00000000E+00
  0.00000000E+00  0.00000000E+00  0.00000000E+00
  0.00000000E+00  0.00000000E+00  0.00000000E+00
  0.00000000E+00  0.00000000E+00  0.00000000E+00
  0.00000000E+00  0.00000000E+00  0.00000000E+00
  0.00000000E+00  0.00000000E+00  0.00000000E+00
  0.00000000E+00  0.00000000E+00  0.00000000E+00
  0.00000000E+00  0.00000000E+00  0.00000000E+00
  0.00000000E+00  0.00000000E+00  0.00000000E+00
  0.00000000E+00  0.00000000E+00  0.00000000E+00
  0.00000000E+00  0.00000000E+00  0.00000000E+00
  0.00000000E+00  0.00000000E+00  0.00000000E+00
  0.00000000E+00  0.00000000E+00  0.00000000E+00
  0.00000000E+00  0.00000000E+00  0.00000000E+00
  0.00000000E+00  0.00000000E+00  0.00000000E+00
  0.00000000E+00  0.00000000E+00  0.00000000E+00
  0.00000000E+00  0.00000000E+00  0.00000000E+00
  0.00000000E+00  0.00000000E+00  0.00000000E+00
  0.00000000E+00  0.00000000E+00  0.00000000E+00
  0.00000000E+00  0.00000000E+00  0.00000000E+00
  0.00000000E+00  0.00000000E+00  0.00000000E+00
  0.00000000E+00  0.00000000E+00  0.00000000E+00
  0.00000000E+00  0.00000000E+00  0.00000000E+00
  0.00000000E+00  0.00000000E+00  0.00000000E+00
  0.00000000E+00  0.00000000E+00  0.00000000E+00
  0.00000000E+00  0.00000000E+00  0.00000000E+00
  0.00000000E+00  0.00000000E+00  0.00000000E+00
