C6 H6                                   
  0.993288388000000     
     7.3550000000000004    0.0000000000000000    0.0000000000000000
     0.0000000000000000    9.3710000000000004    0.0000000000000000
     0.0000000000000000    0.0000000000000000    6.7000000000000002
   C    H 
    24    24
Direct
  0.9447752052368654  0.1437131448017590  0.0021438782585188
  0.0552247757631366  0.8562868551982405 -0.0021438522585166
  0.5552247947631346  0.8562868551982405  0.5021438492585127
  0.4447752352368607  0.1437131448017590  0.4978561217414813
  0.0552247757631366  0.6437131448017595  0.4978561217414813
  0.9447752052368654  0.3562868551982410  0.5021438492585127
  0.4447752352368607  0.3562868551982409 -0.0021438522585166
  0.5552247947631346  0.6437131448017595  0.0021438782585188
  0.0790360780162238  0.0958085395692518  0.1363152349432218
  0.9209639369837740  0.9041914374307499  0.8636847350567759
  0.4209639369837739  0.9041914374307499  0.6363152649432241
  0.5790360630162260  0.0958085395692518  0.3636847650567782
  0.9209639369837740  0.5958085625692501  0.3636847650567782
  0.0790360780162238  0.4041914674307522  0.6363152649432242
  0.5790360630162260  0.4041914674307522  0.8636847350567758
  0.4209639369837739  0.5958085625692501  0.1363152349432218
  0.8651383106989465  0.0477558163353494  0.8664133567420441
  0.1348616893010533  0.9522441616646486  0.1335866432579557
  0.6348616893010535  0.9522441616646486  0.3664133567420443
  0.3651383106989467  0.0477558163353494  0.6335866432579559
  0.1348616893010533  0.5477558383353514  0.6335866432579559
  0.8651383106989465  0.4522441906646475  0.3664133567420443
  0.3651383106989467  0.4522441906646475  0.1335866432579557
  0.6348616893010535  0.5477558383353514  0.8664133567420441
  0.9023414954654532  0.2560331375234062  0.0009014586613345
  0.0976584895345492  0.7439668764765881 -0.0009014296613358
  0.5976585045345468  0.7439668764765881  0.5009014296613359
  0.4023414954654532  0.2560331375234062  0.4990985413386654
  0.0976584895345492  0.7560331235234119  0.4990985413386654
  0.9023414954654532  0.2439668764765879  0.5009014296613359
  0.4023414954654532  0.2439668764765879 -0.0009014296613358
  0.5976585045345468  0.7560331235234119  0.0009014586613345
  0.1396285613283071  0.1690417503352890  0.2451482527394071
  0.8603714246716919  0.8309582346647061  0.7548517322605951
  0.3603714246716919  0.8309582346647061  0.7451482677394049
  0.6396285753283081  0.1690417503352890  0.2548517322605953
  0.8603714246716919  0.6690417653352939  0.2548517322605953
  0.1396285613283071  0.3309582346647063  0.7451482677394049
  0.6396285753283081  0.3309582346647063  0.7548517322605951
  0.3603714246716919  0.6690417653352939  0.2451482527394071
  0.7584419134850643  0.0841106785576148  0.7640708268376708
  0.2415580715149382  0.9158893364423900  0.2359291881623270
  0.7415580865149357  0.9158893364423900  0.2640708268376707
  0.2584419134850642  0.0841106785576148  0.7359291731623291
  0.2415580715149382  0.5841106635576100  0.7359291731623292
  0.7584419134850643  0.4158893364423900  0.2640708268376707
  0.2584419134850642  0.4158893364423900  0.2359291881623270
  0.7415580865149357  0.5841106635576100  0.7640708268376709
 
  0.00000000E+00  0.00000000E+00  0.00000000E+00
  0.00000000E+00  0.00000000E+00  0.00000000E+00
  0.00000000E+00  0.00000000E+00  0.00000000E+00
  0.00000000E+00  0.00000000E+00  0.00000000E+00
  0.00000000E+00  0.00000000E+00  0.00000000E+00
  0.00000000E+00  0.00000000E+00  0.00000000E+00
  0.00000000E+00  0.00000000E+00  0.00000000E+00
  0.00000000E+00  0.00000000E+00  0.00000000E+00
  0.00000000E+00  0.00000000E+00  0.00000000E+00
  0.00000000E+00  0.00000000E+00  0.00000000E+00
  0.00000000E+00  0.00000000E+00  0.00000000E+00
  0.00000000E+00  0.00000000E+00  0.00000000E+00
  0.00000000E+00  0.00000000E+00  0.00000000E+00
  0.00000000E+00  0.00000000E+00  0.00000000E+00
  0.00000000E+00  0.00000000E+00  0.00000000E+00
  0.00000000E+00  0.00000000E+00  0.00000000E+00
  0.00000000E+00  0.00000000E+00  0.00000000E+00
  0.00000000E+00  0.00000000E+00  0.00000000E+00
  0.00000000E+00  0.00000000E+00  0.00000000E+00
  0.00000000E+00  0.00000000E+00  0.00000000E+00
  0.00000000E+00  0.00000000E+00  0.00000000E+00
  0.00000000E+00  0.00000000E+00  0.00000000E+00
  0.00000000E+00  0.00000000E+00  0.00000000E+00
  0.00000000E+00  0.00000000E+00  0.00000000E+00
  0.00000000E+00  0.00000000E+00  0.00000000E+00
  0.00000000E+00  0.00000000E+00  0.00000000E+00
  0.00000000E+00  0.00000000E+00  0.00000000E+00
  0.00000000E+00  0.00000000E+00  0.00000000E+00
  0.00000000E+00  0.00000000E+00  0.00000000E+00
  0.00000000E+00  0.00000000E+00  0.00000000E+00
  0.00000000E+00  0.00000000E+00  0.00000000E+00
  0.00000000E+00  0.00000000E+00  0.00000000E+00
  0.00000000E+00  0.00000000E+00  0.00000000E+00
  0.00000000E+00  0.00000000E+00  0.00000000E+00
  0.00000000E+00  0.00000000E+00  0.00000000E+00
  0.00000000E+00  0.00000000E+00  0.00000000E+00
  0.00000000E+00  0.00000000E+00  0.00000000E+00
  0.00000000E+00  0.00000000E+00  0.00000000E+00
  0.00000000E+00  0.00000000E+00  0.00000000E+00
  0.00000000E+00  0.00000000E+00  0.00000000E+00
  0.00000000E+00  0.00000000E+00  0.00000000E+00
  0.00000000E+00  0.00000000E+00  0.00000000E+00
  0.00000000E+00  0.00000000E+00  0.00000000E+00
  0.00000000E+00  0.00000000E+00  0.00000000E+00
  0.00000000E+00  0.00000000E+00  0.00000000E+00
  0.00000000E+00  0.00000000E+00  0.00000000E+00
  0.00000000E+00  0.00000000E+00  0.00000000E+00
  0.00000000E+00  0.00000000E+00  0.00000000E+00
