ref04                                   
   1.00000000000000     
     7.2048997878999996    0.0000000000000000    0.0000000000000000
     0.0000000000000000    9.1796998978000008    0.0000000000000000
     0.0000000000000000    0.0000000000000000    6.5631999968999999
   C    H 
     6     6
Direct
  0.5569689796556372  0.8545304315189572  0.5033555942217931
  0.4430310203443626  0.1454695684810425  0.4966444357782093
  0.4198186795687083  0.9026006472098169  0.6381336492475410
  0.5801813204312919  0.0973993377901852  0.3618663217524603
  0.6372707337837354  0.9518920054804827  0.3653071058583918
  0.3627292362162619  0.0481080055195217  0.6346929231416142
  0.6014562524205272  0.7409363596338421  0.5058292724635143
  0.3985437475794728  0.2590636703661607  0.4941707275364858
  0.3573217955514754  0.8267042272033750  0.7460780243164963
  0.6426782044485245  0.1732957577966272  0.2539220056834989
  0.7444658984890131  0.9143735909724878  0.2603543841772067
  0.2555341015109870  0.0856264390275147  0.7396455858227980
 
  0.00000000E+00  0.00000000E+00  0.00000000E+00
  0.00000000E+00  0.00000000E+00  0.00000000E+00
  0.00000000E+00  0.00000000E+00  0.00000000E+00
  0.00000000E+00  0.00000000E+00  0.00000000E+00
  0.00000000E+00  0.00000000E+00  0.00000000E+00
  0.00000000E+00  0.00000000E+00  0.00000000E+00
  0.00000000E+00  0.00000000E+00  0.00000000E+00
  0.00000000E+00  0.00000000E+00  0.00000000E+00
  0.00000000E+00  0.00000000E+00  0.00000000E+00
  0.00000000E+00  0.00000000E+00  0.00000000E+00
  0.00000000E+00  0.00000000E+00  0.00000000E+00
  0.00000000E+00  0.00000000E+00  0.00000000E+00
