ref04
1.0
        7.2048997879         0.0000000000         0.0000000000
        0.0000000000         9.1796998978         0.0000000000
        0.0000000000         0.0000000000         6.5631999969
    C    H
    6    6
Direct
     0.556789994         0.854420006         0.503090024
     0.443210006         0.145579994         0.496910006
     0.419770002         0.902859986         0.637579978
     0.580229998         0.097139999         0.362419993
     0.637399971         0.951730013         0.365370005
     0.362599999         0.048269998         0.634630024
     0.600430012         0.740710020         0.505609989
     0.399569988         0.259290010         0.494390011
     0.357789993         0.827679992         0.746290028
     0.642210007         0.172319993         0.253710002
     0.745350003         0.915620029         0.260549992
     0.254649997         0.084380001         0.739449978
