CIF file                                
   1.00000000000000     
     2.4664372489959372   -0.0009596429814032    0.0000000000000000
    -1.2340496996483061    2.1355174929380345    0.0000000000000000
     0.0000000000000000    0.0000000000000000    3.9790504370000002
   C 
     4
Direct
  0.9992882889915606  0.0007117573480470  0.2500000000000000
  0.0007117573480470  0.9992882889915606  0.7500000000000000
  0.3326411566368483  0.6673588260235429  0.2500000000000000
  0.6673588260235429  0.3326411566368483  0.7500000000000000
 
  0.00000000E+00  0.00000000E+00  0.00000000E+00
  0.00000000E+00  0.00000000E+00  0.00000000E+00
  0.00000000E+00  0.00000000E+00  0.00000000E+00
  0.00000000E+00  0.00000000E+00  0.00000000E+00
