methane-1                               
  0.979586109000000     
     6.3499999045999997    0.0000000000000000    0.0000000000000000
     0.0000000000000000    6.3499999045999997    0.0000000000000000
     0.0000000000000000    0.0000000000000000    6.3499999045999997
   H    C 
    16     4
Direct
  0.7159166159282869  0.5785237837630410  0.3961637527777006
  0.6246732859168752  0.8322056139574268  0.7199310234805915
  0.6635739120891214  0.1499050957334629  0.8241598413715756
  0.1033389281638513  0.5004757978955142  0.0739577752163856
  0.8983477492895112  0.2503268532859509  0.2885251867515199
  0.8741818372427831  0.1835133784577803  0.6511222275369126
  0.4051043912264032  0.8747446071030188 -0.0045693384490113
  0.7722988658496399  0.6568978427170125  0.1261820572124173
  0.2020988739415527  0.5500371942237583  0.8737850431432894
  0.0825740141190807  0.8139111256846562  0.2310683380233762
  0.0992034749169765  0.1620101466772992  0.3212077390442221
  0.5792764608826585  0.4703810605204589  0.5745174206203345
  0.6769579837387351  0.0518914899649244  0.8441606269128307
  0.6012677853986720  0.3023808023323417  0.2108594003622469
  0.6197442136646689  0.6641395307667457  0.3003626733025210
  0.0664560631894479  0.9649218837873522  0.5803143948396746
  0.5096217505582697  0.4999065354235738 -0.0012671985053498
  0.0035242429820400  0.9940174894392090  0.0058435664636441
  0.9945970490446736  0.5072191188961580  0.5170818734554607
  0.4913525898567540  0.0016707313703121  0.4716735444396671
 
  0.00000000E+00  0.00000000E+00  0.00000000E+00
  0.00000000E+00  0.00000000E+00  0.00000000E+00
  0.00000000E+00  0.00000000E+00  0.00000000E+00
  0.00000000E+00  0.00000000E+00  0.00000000E+00
  0.00000000E+00  0.00000000E+00  0.00000000E+00
  0.00000000E+00  0.00000000E+00  0.00000000E+00
  0.00000000E+00  0.00000000E+00  0.00000000E+00
  0.00000000E+00  0.00000000E+00  0.00000000E+00
  0.00000000E+00  0.00000000E+00  0.00000000E+00
  0.00000000E+00  0.00000000E+00  0.00000000E+00
  0.00000000E+00  0.00000000E+00  0.00000000E+00
  0.00000000E+00  0.00000000E+00  0.00000000E+00
  0.00000000E+00  0.00000000E+00  0.00000000E+00
  0.00000000E+00  0.00000000E+00  0.00000000E+00
  0.00000000E+00  0.00000000E+00  0.00000000E+00
  0.00000000E+00  0.00000000E+00  0.00000000E+00
  0.00000000E+00  0.00000000E+00  0.00000000E+00
  0.00000000E+00  0.00000000E+00  0.00000000E+00
  0.00000000E+00  0.00000000E+00  0.00000000E+00
  0.00000000E+00  0.00000000E+00  0.00000000E+00
