methane-low                             
  0.979586109000000     
    11.7079000473000008    0.0000000000000000    0.0000000000000000
     0.0000000000000000    8.1892995834000004    0.0000000000000000
     0.0000000000000000    0.0000000000000000    8.1842002868999995
   H    C 
    64    16
Direct
  0.0779321889941364  0.7961430345516369  0.1530436144384544
  0.9220678330058580  0.2038569654483631  0.8469564145615442
  0.9220678330058580  0.7038569654483631  0.6530435854384556
  0.0779321889941364  0.2961430345516368  0.3469563855615455
  0.9220678330058580  0.2961430345516368  0.3469563855615455
  0.0779321889941364  0.7038569654483631  0.6530435854384558
  0.0779321889941364  0.2038569654483631  0.8469564145615442
  0.9220678330058580  0.7961430345516369  0.1530436144384544
  0.5779321669941420  0.2961430345516368  0.1530436144384544
  0.4220678040058596  0.7038569654483631  0.8469564145615442
  0.4220678040058596  0.2038569654483631  0.6530435854384556
  0.5779321669941420  0.7961430345516369  0.3469563855615456
  0.4220678040058596  0.7961430345516369  0.3469563855615455
  0.5779321669941420  0.2038569654483631  0.6530435854384558
  0.5779321669941420  0.7038569654483631  0.8469564145615442
  0.4220678040058596  0.2961430345516368  0.1530436144384544
  0.8050735249584975  0.5854921979486403  0.9286069761334987
  0.1949264750415025  0.4145078020513597  0.0713930238665013
  0.1949264750415025  0.9145078020513597  0.4286069761334988
  0.8050735249584975  0.0854921979486403  0.5713930238665011
  0.1949264750415025  0.0854921979486403  0.5713930238665011
  0.8050735249584975  0.9145078020513597  0.4286069761334988
  0.8050735249584975  0.4145078020513597  0.0713930238665013
  0.1949264750415025  0.5854921979486403  0.9286069761334986
  0.3050735249584974  0.0854921979486403  0.9286069761334987
  0.6949264750415025  0.9145078020513597  0.0713930238665013
  0.6949264750415025  0.4145078020513597  0.4286069761334988
  0.3050735249584974  0.5854921979486403  0.5713930238665011
  0.6949264750415025  0.5854921979486403  0.5713930238665011
  0.3050735249584974  0.4145078020513597  0.4286069761334988
  0.3050735249584974  0.9145078020513597  0.0713930238665013
  0.6949264750415025  0.0854921979486403  0.9286069761334986
  0.6948226943308514  0.5713580651648702  0.0858555214080431
  0.3051773056691488  0.4286419348351296  0.9141444785919569
  0.3051773056691488  0.9286419348351298  0.5858555214080431
  0.6948226943308514  0.0713580651648704  0.4141444785919567
  0.3051773056691488  0.0713580651648704  0.4141444785919567
  0.6948226943308514  0.9286419348351298  0.5858555214080431
  0.6948226943308514  0.4286419348351296  0.9141444785919569
  0.3051773056691488  0.5713580651648702  0.0858555214080431
  0.1948226943308514  0.0713580651648704  0.0858555214080431
  0.8051773056691486  0.9286419348351298  0.9141444785919569
  0.8051773056691486  0.4286419348351296  0.5858555214080431
  0.1948226943308514  0.5713580651648702  0.4141444785919567
  0.8051773056691486  0.5713580651648702  0.4141444785919567
  0.1948226943308514  0.4286419348351296  0.5858555214080431
  0.1948226943308514  0.9286419348351298  0.9141444785919569
  0.8051773056691486  0.0713580651648704  0.0858555214080431
 -0.0000000000000000  0.6030331407375231  0.1576042484292102
 -0.0000000000000000  0.3969668592624770  0.8423957215707873
 -0.0000000000000000  0.8969668592624769  0.6576042784292127
 -0.0000000000000000  0.1030331407375230  0.3423957515707899
  0.5000000000000000  0.1030331407375230  0.1576042484292102
  0.5000000000000000  0.8969668592624769  0.8423957215707873
  0.5000000000000000  0.3969668592624770  0.6576042784292127
  0.5000000000000000  0.6030331407375231  0.3423957515707899
 -0.0000000000000000  0.2640283508628306  0.6632185052819694
 -0.0000000000000000  0.7359716491371694 -0.6632185052819692
 -0.0000000000000000  0.2359716491371697  0.1632185052819694
 -0.0000000000000000 -0.2359716491371696 -0.1632185052819692
  0.5000000000000000 -0.2359716491371696  0.6632185052819694
  0.5000000000000000  0.2359716491371697 -0.6632185052819692
  0.5000000000000000  0.7359716491371695  0.1632185052819694
  0.5000000000000000  0.2640283508628306 -0.1632185052819692
 -0.0000000000000000  0.2328286992584959 -0.7000844803415562
 -0.0000000000000000  0.7671713007415041  0.7000844653415589
 -0.0000000000000000  0.2671713007415043 -0.2000844653415582
 -0.0000000000000000 -0.2671713007415042  0.2000844653415585
  0.5000000000000000 -0.2671713007415042 -0.7000844803415562
  0.5000000000000000  0.2671713007415041  0.7000844653415584
  0.5000000000000000  0.7671713007415041 -0.2000844653415584
  0.5000000000000000  0.2328286992584958  0.2000844653415585
  0.7498579859746057  0.5000000000000000 -0.0000000000000000
  0.2501420140253940  0.5000000000000000 -0.0000000000000000
  0.2501420140253940  0.0000000000000000  0.5000000000000000
  0.7498579859746057  0.0000000000000000  0.5000000000000000
  0.2498579859746059  0.0000000000000000 -0.0000000000000000
  0.7501420140253943  0.0000000000000000 -0.0000000000000000
  0.7501420140253943  0.5000000000000000  0.5000000000000000
  0.2498579859746059  0.5000000000000000  0.5000000000000000
 
  0.00000000E+00  0.00000000E+00  0.00000000E+00
  0.00000000E+00  0.00000000E+00  0.00000000E+00
  0.00000000E+00  0.00000000E+00  0.00000000E+00
  0.00000000E+00  0.00000000E+00  0.00000000E+00
  0.00000000E+00  0.00000000E+00  0.00000000E+00
  0.00000000E+00  0.00000000E+00  0.00000000E+00
  0.00000000E+00  0.00000000E+00  0.00000000E+00
  0.00000000E+00  0.00000000E+00  0.00000000E+00
  0.00000000E+00  0.00000000E+00  0.00000000E+00
  0.00000000E+00  0.00000000E+00  0.00000000E+00
  0.00000000E+00  0.00000000E+00  0.00000000E+00
  0.00000000E+00  0.00000000E+00  0.00000000E+00
  0.00000000E+00  0.00000000E+00  0.00000000E+00
  0.00000000E+00  0.00000000E+00  0.00000000E+00
  0.00000000E+00  0.00000000E+00  0.00000000E+00
  0.00000000E+00  0.00000000E+00  0.00000000E+00
  0.00000000E+00  0.00000000E+00  0.00000000E+00
  0.00000000E+00  0.00000000E+00  0.00000000E+00
  0.00000000E+00  0.00000000E+00  0.00000000E+00
  0.00000000E+00  0.00000000E+00  0.00000000E+00
  0.00000000E+00  0.00000000E+00  0.00000000E+00
  0.00000000E+00  0.00000000E+00  0.00000000E+00
  0.00000000E+00  0.00000000E+00  0.00000000E+00
  0.00000000E+00  0.00000000E+00  0.00000000E+00
  0.00000000E+00  0.00000000E+00  0.00000000E+00
  0.00000000E+00  0.00000000E+00  0.00000000E+00
  0.00000000E+00  0.00000000E+00  0.00000000E+00
  0.00000000E+00  0.00000000E+00  0.00000000E+00
  0.00000000E+00  0.00000000E+00  0.00000000E+00
  0.00000000E+00  0.00000000E+00  0.00000000E+00
  0.00000000E+00  0.00000000E+00  0.00000000E+00
  0.00000000E+00  0.00000000E+00  0.00000000E+00
  0.00000000E+00  0.00000000E+00  0.00000000E+00
  0.00000000E+00  0.00000000E+00  0.00000000E+00
  0.00000000E+00  0.00000000E+00  0.00000000E+00
  0.00000000E+00  0.00000000E+00  0.00000000E+00
  0.00000000E+00  0.00000000E+00  0.00000000E+00
  0.00000000E+00  0.00000000E+00  0.00000000E+00
  0.00000000E+00  0.00000000E+00  0.00000000E+00
  0.00000000E+00  0.00000000E+00  0.00000000E+00
  0.00000000E+00  0.00000000E+00  0.00000000E+00
  0.00000000E+00  0.00000000E+00  0.00000000E+00
  0.00000000E+00  0.00000000E+00  0.00000000E+00
  0.00000000E+00  0.00000000E+00  0.00000000E+00
  0.00000000E+00  0.00000000E+00  0.00000000E+00
  0.00000000E+00  0.00000000E+00  0.00000000E+00
  0.00000000E+00  0.00000000E+00  0.00000000E+00
  0.00000000E+00  0.00000000E+00  0.00000000E+00
  0.00000000E+00  0.00000000E+00  0.00000000E+00
  0.00000000E+00  0.00000000E+00  0.00000000E+00
  0.00000000E+00  0.00000000E+00  0.00000000E+00
  0.00000000E+00  0.00000000E+00  0.00000000E+00
  0.00000000E+00  0.00000000E+00  0.00000000E+00
  0.00000000E+00  0.00000000E+00  0.00000000E+00
  0.00000000E+00  0.00000000E+00  0.00000000E+00
  0.00000000E+00  0.00000000E+00  0.00000000E+00
  0.00000000E+00  0.00000000E+00  0.00000000E+00
  0.00000000E+00  0.00000000E+00  0.00000000E+00
  0.00000000E+00  0.00000000E+00  0.00000000E+00
  0.00000000E+00  0.00000000E+00  0.00000000E+00
  0.00000000E+00  0.00000000E+00  0.00000000E+00
  0.00000000E+00  0.00000000E+00  0.00000000E+00
  0.00000000E+00  0.00000000E+00  0.00000000E+00
  0.00000000E+00  0.00000000E+00  0.00000000E+00
  0.00000000E+00  0.00000000E+00  0.00000000E+00
  0.00000000E+00  0.00000000E+00  0.00000000E+00
  0.00000000E+00  0.00000000E+00  0.00000000E+00
  0.00000000E+00  0.00000000E+00  0.00000000E+00
  0.00000000E+00  0.00000000E+00  0.00000000E+00
  0.00000000E+00  0.00000000E+00  0.00000000E+00
  0.00000000E+00  0.00000000E+00  0.00000000E+00
  0.00000000E+00  0.00000000E+00  0.00000000E+00
  0.00000000E+00  0.00000000E+00  0.00000000E+00
  0.00000000E+00  0.00000000E+00  0.00000000E+00
  0.00000000E+00  0.00000000E+00  0.00000000E+00
  0.00000000E+00  0.00000000E+00  0.00000000E+00
  0.00000000E+00  0.00000000E+00  0.00000000E+00
  0.00000000E+00  0.00000000E+00  0.00000000E+00
  0.00000000E+00  0.00000000E+00  0.00000000E+00
  0.00000000E+00  0.00000000E+00  0.00000000E+00
