methane-high
0.979586109
       11.7079000473         0.0000000000         0.0000000000
        0.0000000000         8.1892995834         0.0000000000
        0.0000000000         0.0000000000         8.1842002869
    H    C
   56   16
Direct
     0.800999999         0.579500020         0.933600008
     0.199000001         0.420499980         0.066399992
     0.199000001         0.920499980         0.433600008
     0.800999999         0.079500020         0.566399992
     0.199000001         0.079500020         0.566399992
     0.800999999         0.920499980         0.433600008
     0.800999999         0.420499980         0.066399992
     0.199000001         0.579500020         0.933600008
     0.300999999         0.079500020         0.933600008
     0.699000001         0.920499980         0.066399992
     0.699000001         0.420499980         0.433600008
     0.300999999         0.579500020         0.566399992
     0.699000001         0.579500020         0.566399992
     0.300999999         0.420499980         0.433600008
     0.300999999         0.920499980         0.066399992
     0.699000001         0.079500020         0.933600008
     0.698599994         0.566299975         0.079599977
     0.301400006         0.433700025         0.920400023
     0.301400006         0.933700025         0.579599977
     0.698599994         0.066299975         0.420400023
     0.301400006         0.066299975         0.420400023
     0.698599994         0.933700025         0.579599977
     0.698599994         0.433700025         0.920400023
     0.301400006         0.566299975         0.079599977
     0.198599994         0.066299975         0.079599977
     0.801400006         0.933700025         0.920400023
     0.801400006         0.433700025         0.579599977
     0.198599994         0.566299975         0.420400023
     0.801400006         0.566299975         0.420400023
     0.198599994         0.433700025         0.579599977
     0.198599994         0.933700025         0.920400023
     0.801400006         0.066299975         0.079599977
     0.072800003         0.785499990         0.182300001
     0.927200019         0.214500010         0.817700028
     0.927200019         0.714500010         0.682299972
     0.072800003         0.285499990         0.317699999
     0.927200019         0.285499990         0.317699999
     0.072800003         0.714500010         0.682299972
     0.072800003         0.214500010         0.817700028
     0.927200019         0.785499990         0.182300001
     0.572799981         0.285499990         0.182300001
     0.427199990         0.714500010         0.817700028
     0.427199990         0.214500010         0.682299972
     0.572799981         0.785499990         0.317699999
     0.427199990         0.785499990         0.317699999
     0.572799981         0.214500010         0.682299972
     0.572799981         0.714500010         0.817700028
     0.427199990         0.285499990         0.182300001
     0.000000000         0.605899990         0.199200004
     0.000000000         0.394100010         0.800799966
     0.000000000         0.894100010         0.699200034
     0.000000000         0.105899990         0.300799996
     0.500000000         0.105899990         0.199200004
     0.500000000         0.894100010         0.800799966
     0.500000000         0.394100010         0.699200034
     0.500000000         0.605899990         0.300799996
     0.000000000         0.729600012         0.230299994
     0.000000000         0.270399988         0.769699991
     0.000000000         0.770399988         0.730300009
     0.000000000         0.229600012         0.269699991
     0.500000000         0.229600012         0.230299994
     0.500000000         0.770399988         0.769699991
     0.500000000         0.270399988         0.730300009
     0.500000000         0.729600012         0.269699991
     0.749800026         0.500000000         0.000000000
     0.250199974         0.500000000         0.000000000
     0.250199974         0.000000000         0.500000000
     0.749800026         0.000000000         0.500000000
     0.249800026         0.000000000         0.000000000
     0.750199974         0.000000000         0.000000000
     0.750199974         0.500000000         0.500000000
     0.249800026         0.500000000         0.500000000
