methane-low                             
   1.03228011500000     
    11.7079000473000008    0.0000000000000000    0.0000000000000000
     0.0000000000000000    8.1892995834000004    0.0000000000000000
     0.0000000000000000    0.0000000000000000    8.1842002868999995
   H    C 
    64    16
Direct
  0.0740492352020993  0.7780954428304763  0.2609543788886831
  0.9259507867978954  0.2219045571695236  0.7390456501113157
  0.9259507867978954  0.7219045571695237  0.7609543498886843
  0.0740492352020993  0.2780954428304763  0.2390456211113169
  0.9259507867978954  0.2780954428304763  0.2390456211113169
  0.0740492352020993  0.7219045571695237  0.7609543498886843
  0.0740492352020993  0.2219045571695236  0.7390456501113157
  0.9259507867978954  0.7780954428304763  0.2609543788886831
  0.5740492132021046  0.2780954428304763  0.2609543788886831
  0.4259507577978966  0.7219045571695237  0.7390456501113157
  0.4259507577978966  0.2219045571695236  0.7609543498886843
  0.5740492132021046  0.7780954428304763  0.2390456211113169
  0.4259507577978966  0.7780954428304763  0.2390456211113169
  0.5740492132021046  0.2219045571695236  0.7609543498886843
  0.5740492132021046  0.7219045571695237  0.7390456501113157
  0.4259507577978966  0.2780954428304763  0.2609543788886831
  0.8021264698535926  0.5812650303000901  0.9324084024944850
  0.1978735301464074  0.4187349696999099  0.0675915975055151
  0.1978735301464074  0.9187349696999099  0.4324084024944849
  0.8021264698535926  0.0812650303000901  0.5675915975055150
  0.1978735301464074  0.0812650303000901  0.5675915975055150
  0.8021264698535926  0.9187349696999099  0.4324084024944849
  0.8021264698535926  0.4187349696999099  0.0675915975055151
  0.1978735301464074  0.5812650303000901  0.9324084024944850
  0.3021264698535926  0.0812650303000901  0.9324084024944850
  0.6978735301464074  0.9187349696999099  0.0675915975055151
  0.6978735301464074  0.4187349696999099  0.4324084024944849
  0.3021264698535926  0.5812650303000901  0.5675915975055150
  0.6978735301464074  0.5812650303000901  0.5675915975055150
  0.3021264698535926  0.4187349696999099  0.4324084024944849
  0.3021264698535926  0.9187349696999099  0.0675915975055151
  0.6978735301464074  0.0812650303000901  0.9324084024944850
  0.6973904032642116  0.5676769952787909  0.0814521632237573
  0.3026095967357884  0.4323230047212091  0.9185478367762426
  0.3026095967357884  0.9323230047212091  0.5814521632237574
  0.6973904032642116  0.0676769952787980  0.4185478367762427
  0.3026095967357884  0.0676769952787980  0.4185478367762427
  0.6973904032642116  0.9323230047212091  0.5814521632237574
  0.6973904032642116  0.4323230047212091  0.9185478367762426
  0.3026095967357884  0.5676769952787909  0.0814521632237573
  0.1973904032642117  0.0676769952787980  0.0814521632237573
  0.8026095967357884  0.9323230047212091  0.9185478367762426
  0.8026095967357884  0.4323230047212091  0.5814521632237574
  0.1973904032642117  0.5676769952787909  0.4185478367762427
  0.8026095967357884  0.5676769952787909  0.4185478367762427
  0.1973904032642117  0.4323230047212091  0.5814521632237574
  0.1973904032642117  0.9323230047212091  0.9185478367762426
  0.8026095967357884  0.0676769952787980  0.0814521632237573
  0.0000000000000000  0.6030280548983684  0.2065135359319421
  0.0000000000000000  0.3969719451016316  0.7934864340680554
  0.0000000000000000  0.8969719451016316  0.7065135659319446
  0.0000000000000000  0.1030280548983684  0.2934864640680578
  0.5000000000000000  0.1030280548983684  0.2065135359319421
  0.5000000000000000  0.8969719451016316  0.7934864340680554
  0.5000000000000000  0.3969719451016316  0.7065135659319446
  0.5000000000000000  0.6030280548983684  0.2934864640680578
  0.0000000000000000  0.2285548434957940  0.9221176106591675
  0.0000000000000000  0.7714451565042060  0.0778823893408325
  0.0000000000000000  0.2714451565042060  0.4221176106591675
  0.0000000000000000  0.7285548434957940  0.5778823893408325
  0.5000000000000000  0.7285548434957940  0.9221176106591675
  0.5000000000000000  0.2714451565042060  0.0778823893408325
  0.5000000000000000  0.7714451565042060  0.4221176106591675
  0.5000000000000000  0.2285548434957940  0.5778823893408325
  0.0000000000000000  0.2325371593313924  0.2984074729901184
  0.0000000000000000  0.7674628406686077  0.7015925120098838
  0.0000000000000000  0.2674628406686076  0.7984074879901162
  0.0000000000000000  0.7325371593313923  0.2015925120098839
  0.5000000000000000  0.7325371593313923  0.2984074729901184
  0.5000000000000000  0.2674628406686076  0.7015925120098838
  0.5000000000000000  0.7674628406686077  0.7984074879901162
  0.5000000000000000  0.2325371593313924  0.2015925120098839
  0.7496667167888069  0.5000000000000000  0.0000000000000000
  0.2503332832111931  0.5000000000000000  0.0000000000000000
  0.2503332832111931  0.0000000000000000  0.5000000000000000
  0.7496667167888069  0.0000000000000000  0.5000000000000000
  0.2496667167888069  0.0000000000000000  0.0000000000000000
  0.7503332832111931  0.0000000000000000  0.0000000000000000
  0.7503332832111931  0.5000000000000000  0.5000000000000000
  0.2496667167888069  0.5000000000000000  0.5000000000000000
 
  0.00000000E+00  0.00000000E+00  0.00000000E+00
  0.00000000E+00  0.00000000E+00  0.00000000E+00
  0.00000000E+00  0.00000000E+00  0.00000000E+00
  0.00000000E+00  0.00000000E+00  0.00000000E+00
  0.00000000E+00  0.00000000E+00  0.00000000E+00
  0.00000000E+00  0.00000000E+00  0.00000000E+00
  0.00000000E+00  0.00000000E+00  0.00000000E+00
  0.00000000E+00  0.00000000E+00  0.00000000E+00
  0.00000000E+00  0.00000000E+00  0.00000000E+00
  0.00000000E+00  0.00000000E+00  0.00000000E+00
  0.00000000E+00  0.00000000E+00  0.00000000E+00
  0.00000000E+00  0.00000000E+00  0.00000000E+00
  0.00000000E+00  0.00000000E+00  0.00000000E+00
  0.00000000E+00  0.00000000E+00  0.00000000E+00
  0.00000000E+00  0.00000000E+00  0.00000000E+00
  0.00000000E+00  0.00000000E+00  0.00000000E+00
  0.00000000E+00  0.00000000E+00  0.00000000E+00
  0.00000000E+00  0.00000000E+00  0.00000000E+00
  0.00000000E+00  0.00000000E+00  0.00000000E+00
  0.00000000E+00  0.00000000E+00  0.00000000E+00
  0.00000000E+00  0.00000000E+00  0.00000000E+00
  0.00000000E+00  0.00000000E+00  0.00000000E+00
  0.00000000E+00  0.00000000E+00  0.00000000E+00
  0.00000000E+00  0.00000000E+00  0.00000000E+00
  0.00000000E+00  0.00000000E+00  0.00000000E+00
  0.00000000E+00  0.00000000E+00  0.00000000E+00
  0.00000000E+00  0.00000000E+00  0.00000000E+00
  0.00000000E+00  0.00000000E+00  0.00000000E+00
  0.00000000E+00  0.00000000E+00  0.00000000E+00
  0.00000000E+00  0.00000000E+00  0.00000000E+00
  0.00000000E+00  0.00000000E+00  0.00000000E+00
  0.00000000E+00  0.00000000E+00  0.00000000E+00
  0.00000000E+00  0.00000000E+00  0.00000000E+00
  0.00000000E+00  0.00000000E+00  0.00000000E+00
  0.00000000E+00  0.00000000E+00  0.00000000E+00
  0.00000000E+00  0.00000000E+00  0.00000000E+00
  0.00000000E+00  0.00000000E+00  0.00000000E+00
  0.00000000E+00  0.00000000E+00  0.00000000E+00
  0.00000000E+00  0.00000000E+00  0.00000000E+00
  0.00000000E+00  0.00000000E+00  0.00000000E+00
  0.00000000E+00  0.00000000E+00  0.00000000E+00
  0.00000000E+00  0.00000000E+00  0.00000000E+00
  0.00000000E+00  0.00000000E+00  0.00000000E+00
  0.00000000E+00  0.00000000E+00  0.00000000E+00
  0.00000000E+00  0.00000000E+00  0.00000000E+00
  0.00000000E+00  0.00000000E+00  0.00000000E+00
  0.00000000E+00  0.00000000E+00  0.00000000E+00
  0.00000000E+00  0.00000000E+00  0.00000000E+00
  0.00000000E+00  0.00000000E+00  0.00000000E+00
  0.00000000E+00  0.00000000E+00  0.00000000E+00
  0.00000000E+00  0.00000000E+00  0.00000000E+00
  0.00000000E+00  0.00000000E+00  0.00000000E+00
  0.00000000E+00  0.00000000E+00  0.00000000E+00
  0.00000000E+00  0.00000000E+00  0.00000000E+00
  0.00000000E+00  0.00000000E+00  0.00000000E+00
  0.00000000E+00  0.00000000E+00  0.00000000E+00
  0.00000000E+00  0.00000000E+00  0.00000000E+00
  0.00000000E+00  0.00000000E+00  0.00000000E+00
  0.00000000E+00  0.00000000E+00  0.00000000E+00
  0.00000000E+00  0.00000000E+00  0.00000000E+00
  0.00000000E+00  0.00000000E+00  0.00000000E+00
  0.00000000E+00  0.00000000E+00  0.00000000E+00
  0.00000000E+00  0.00000000E+00  0.00000000E+00
  0.00000000E+00  0.00000000E+00  0.00000000E+00
  0.00000000E+00  0.00000000E+00  0.00000000E+00
  0.00000000E+00  0.00000000E+00  0.00000000E+00
  0.00000000E+00  0.00000000E+00  0.00000000E+00
  0.00000000E+00  0.00000000E+00  0.00000000E+00
  0.00000000E+00  0.00000000E+00  0.00000000E+00
  0.00000000E+00  0.00000000E+00  0.00000000E+00
  0.00000000E+00  0.00000000E+00  0.00000000E+00
  0.00000000E+00  0.00000000E+00  0.00000000E+00
  0.00000000E+00  0.00000000E+00  0.00000000E+00
  0.00000000E+00  0.00000000E+00  0.00000000E+00
  0.00000000E+00  0.00000000E+00  0.00000000E+00
  0.00000000E+00  0.00000000E+00  0.00000000E+00
  0.00000000E+00  0.00000000E+00  0.00000000E+00
  0.00000000E+00  0.00000000E+00  0.00000000E+00
  0.00000000E+00  0.00000000E+00  0.00000000E+00
  0.00000000E+00  0.00000000E+00  0.00000000E+00
