methane-low                             
   1.01961282200000     
    11.7079000473000008    0.0000000000000000    0.0000000000000000
     0.0000000000000000    8.1892995834000004    0.0000000000000000
     0.0000000000000000    0.0000000000000000    8.1842002868999995
   H    C 
    64    16
Direct
  0.0749625794488101  0.7786394246341211  0.2617530212269151
  0.9250374425511846  0.2213605753658788  0.7382470077730835
  0.9250374425511846  0.7213605753658789  0.7617529922269164
  0.0749625794488101  0.2786394246341212  0.2382469787730852
  0.9250374425511846  0.2786394246341212  0.2382469787730852
  0.0749625794488101  0.7213605753658789  0.7617529922269164
  0.0749625794488101  0.2213605753658788  0.7382470077730834
  0.9250374425511846  0.7786394246341211  0.2617530212269151
  0.5749625574488154  0.2786394246341212  0.2617530212269151
  0.4250374135511858  0.7213605753658788  0.7382470077730835
  0.4250374135511858  0.2213605753658788  0.7617529922269164
  0.5749625574488154  0.7786394246341211  0.2382469787730852
  0.4250374135511858  0.7786394246341211  0.2382469787730852
  0.5749625574488154  0.2213605753658788  0.7617529922269164
  0.5749625574488154  0.7213605753658789  0.7382470077730834
  0.4250374135511858  0.2786394246341212  0.2617530212269151
  0.8027826641952487  0.5822171438970709  0.9315799622419718
  0.1972173358047512  0.4177828561029291  0.0684200377580285
  0.1972173358047512  0.9177828561029291  0.4315799622419716
  0.8027826641952487  0.0822171438970708  0.5684200377580282
  0.1972173358047512  0.0822171438970708  0.5684200377580282
  0.8027826641952487  0.9177828561029291  0.4315799622419716
  0.8027826641952487  0.4177828561029291  0.0684200377580285
  0.1972173358047512  0.5822171438970709  0.9315799622419718
  0.3027826641952488  0.0822171438970708  0.9315799622419718
  0.6972173358047513  0.9177828561029291  0.0684200377580285
  0.6972173358047513  0.4177828561029291  0.4315799622419716
  0.3027826641952488  0.5822171438970709  0.5684200377580282
  0.6972173358047513  0.5822171438970709  0.5684200377580282
  0.3027826641952488  0.4177828561029291  0.4315799622419716
  0.3027826641952488  0.9177828561029291  0.0684200377580285
  0.6972173358047513  0.0822171438970708  0.9315799622419718
  0.6967666296918293  0.5685124348049760  0.0824200001430748
  0.3032333703081708  0.4314875651950239  0.9175799998569251
  0.3032333703081708  0.9314875651950240  0.5824200001430749
  0.6967666296918293  0.0685124348049762  0.4175799998569253
  0.3032333703081708  0.0685124348049762  0.4175799998569253
  0.6967666296918293  0.9314875651950240  0.5824200001430749
  0.6967666296918293  0.4314875651950239  0.9175799998569251
  0.3032333703081708  0.5685124348049760  0.0824200001430748
  0.1967666296918295  0.0685124348049762  0.0824200001430748
  0.8032333703081704  0.9314875651950240  0.9175799998569251
  0.8032333703081707  0.4314875651950239  0.5824200001430749
  0.1967666296918295  0.5685124348049760  0.4175799998569253
  0.8032333703081707  0.5685124348049760  0.4175799998569253
  0.1967666296918295  0.4314875651950239  0.5824200001430749
  0.1967666296918295  0.9314875651950240  0.9175799998569251
  0.8032333703081704  0.0685124348049762  0.0824200001430748
  0.0000000000000000  0.6014175759020377  0.2066368515555397
  0.0000000000000000  0.3985824240979625  0.7933631184444576
  0.0000000000000000  0.8985824240979624  0.7066368815555424
  0.0000000000000000  0.1014175759020376  0.2933631484444602
  0.5000000000000000  0.1014175759020376  0.2066368515555397
  0.5000000000000000  0.8985824240979623  0.7933631184444576
  0.5000000000000000  0.3985824240979625  0.7066368815555424
  0.5000000000000000  0.6014175759020377  0.2933631484444602
  0.0000000000000000  0.2280254399733237  0.9236878375916323
  0.0000000000000000  0.7719745600266761 -0.9236878375916324
  0.0000000000000000  0.2719745600266766  0.4236878375916324
  0.0000000000000000 -0.2719745600266765 -0.4236878375916322
  0.5000000000000000 -0.2719745600266764  0.9236878375916324
  0.5000000000000000  0.2719745600266764 -0.9236878375916324
  0.5000000000000000  0.7719745600266761  0.4236878375916324
  0.5000000000000000  0.2280254399733237 -0.4236878375916323
  0.0000000000000000  0.2325411669238042 -0.7015784382804393
  0.0000000000000000  0.7674588330761960  0.7015784232804418
  0.0000000000000000  0.2674588330761959 -0.2015784232804419
  0.0000000000000000 -0.2674588330761958  0.2015784232804419
  0.5000000000000000 -0.2674588330761959 -0.7015784382804393
  0.5000000000000000  0.2674588330761959  0.7015784232804418
  0.5000000000000000  0.7674588330761958 -0.2015784232804419
  0.5000000000000000  0.2325411669238043  0.2015784232804419
  0.7496758474593388  0.5000000000000000 -0.0000000000000000
  0.2503241525406612  0.5000000000000000 -0.0000000000000000
  0.2503241525406612  0.0000000000000000  0.5000000000000000
  0.7496758474593388  0.0000000000000000  0.5000000000000000
  0.2496758474593387  0.0000000000000000 -0.0000000000000000
  0.7503241525406612  0.0000000000000000 -0.0000000000000000
  0.7503241525406612  0.5000000000000000  0.5000000000000000
  0.2496758474593387  0.5000000000000000  0.5000000000000000
 
  0.00000000E+00  0.00000000E+00  0.00000000E+00
  0.00000000E+00  0.00000000E+00  0.00000000E+00
  0.00000000E+00  0.00000000E+00  0.00000000E+00
  0.00000000E+00  0.00000000E+00  0.00000000E+00
  0.00000000E+00  0.00000000E+00  0.00000000E+00
  0.00000000E+00  0.00000000E+00  0.00000000E+00
  0.00000000E+00  0.00000000E+00  0.00000000E+00
  0.00000000E+00  0.00000000E+00  0.00000000E+00
  0.00000000E+00  0.00000000E+00  0.00000000E+00
  0.00000000E+00  0.00000000E+00  0.00000000E+00
  0.00000000E+00  0.00000000E+00  0.00000000E+00
  0.00000000E+00  0.00000000E+00  0.00000000E+00
  0.00000000E+00  0.00000000E+00  0.00000000E+00
  0.00000000E+00  0.00000000E+00  0.00000000E+00
  0.00000000E+00  0.00000000E+00  0.00000000E+00
  0.00000000E+00  0.00000000E+00  0.00000000E+00
  0.00000000E+00  0.00000000E+00  0.00000000E+00
  0.00000000E+00  0.00000000E+00  0.00000000E+00
  0.00000000E+00  0.00000000E+00  0.00000000E+00
  0.00000000E+00  0.00000000E+00  0.00000000E+00
  0.00000000E+00  0.00000000E+00  0.00000000E+00
  0.00000000E+00  0.00000000E+00  0.00000000E+00
  0.00000000E+00  0.00000000E+00  0.00000000E+00
  0.00000000E+00  0.00000000E+00  0.00000000E+00
  0.00000000E+00  0.00000000E+00  0.00000000E+00
  0.00000000E+00  0.00000000E+00  0.00000000E+00
  0.00000000E+00  0.00000000E+00  0.00000000E+00
  0.00000000E+00  0.00000000E+00  0.00000000E+00
  0.00000000E+00  0.00000000E+00  0.00000000E+00
  0.00000000E+00  0.00000000E+00  0.00000000E+00
  0.00000000E+00  0.00000000E+00  0.00000000E+00
  0.00000000E+00  0.00000000E+00  0.00000000E+00
  0.00000000E+00  0.00000000E+00  0.00000000E+00
  0.00000000E+00  0.00000000E+00  0.00000000E+00
  0.00000000E+00  0.00000000E+00  0.00000000E+00
  0.00000000E+00  0.00000000E+00  0.00000000E+00
  0.00000000E+00  0.00000000E+00  0.00000000E+00
  0.00000000E+00  0.00000000E+00  0.00000000E+00
  0.00000000E+00  0.00000000E+00  0.00000000E+00
  0.00000000E+00  0.00000000E+00  0.00000000E+00
  0.00000000E+00  0.00000000E+00  0.00000000E+00
  0.00000000E+00  0.00000000E+00  0.00000000E+00
  0.00000000E+00  0.00000000E+00  0.00000000E+00
  0.00000000E+00  0.00000000E+00  0.00000000E+00
  0.00000000E+00  0.00000000E+00  0.00000000E+00
  0.00000000E+00  0.00000000E+00  0.00000000E+00
  0.00000000E+00  0.00000000E+00  0.00000000E+00
  0.00000000E+00  0.00000000E+00  0.00000000E+00
  0.00000000E+00  0.00000000E+00  0.00000000E+00
  0.00000000E+00  0.00000000E+00  0.00000000E+00
  0.00000000E+00  0.00000000E+00  0.00000000E+00
  0.00000000E+00  0.00000000E+00  0.00000000E+00
  0.00000000E+00  0.00000000E+00  0.00000000E+00
  0.00000000E+00  0.00000000E+00  0.00000000E+00
  0.00000000E+00  0.00000000E+00  0.00000000E+00
  0.00000000E+00  0.00000000E+00  0.00000000E+00
  0.00000000E+00  0.00000000E+00  0.00000000E+00
  0.00000000E+00  0.00000000E+00  0.00000000E+00
  0.00000000E+00  0.00000000E+00  0.00000000E+00
  0.00000000E+00  0.00000000E+00  0.00000000E+00
  0.00000000E+00  0.00000000E+00  0.00000000E+00
  0.00000000E+00  0.00000000E+00  0.00000000E+00
  0.00000000E+00  0.00000000E+00  0.00000000E+00
  0.00000000E+00  0.00000000E+00  0.00000000E+00
  0.00000000E+00  0.00000000E+00  0.00000000E+00
  0.00000000E+00  0.00000000E+00  0.00000000E+00
  0.00000000E+00  0.00000000E+00  0.00000000E+00
  0.00000000E+00  0.00000000E+00  0.00000000E+00
  0.00000000E+00  0.00000000E+00  0.00000000E+00
  0.00000000E+00  0.00000000E+00  0.00000000E+00
  0.00000000E+00  0.00000000E+00  0.00000000E+00
  0.00000000E+00  0.00000000E+00  0.00000000E+00
  0.00000000E+00  0.00000000E+00  0.00000000E+00
  0.00000000E+00  0.00000000E+00  0.00000000E+00
  0.00000000E+00  0.00000000E+00  0.00000000E+00
  0.00000000E+00  0.00000000E+00  0.00000000E+00
  0.00000000E+00  0.00000000E+00  0.00000000E+00
  0.00000000E+00  0.00000000E+00  0.00000000E+00
  0.00000000E+00  0.00000000E+00  0.00000000E+00
  0.00000000E+00  0.00000000E+00  0.00000000E+00
