methane-low                             
   1.03228011500000     
    11.7079000473000008    0.0000000000000000    0.0000000000000000
     0.0000000000000000    8.1892995834000004    0.0000000000000000
     0.0000000000000000    0.0000000000000000    8.1842002868999995
   H    C 
    64    16
Direct
  0.0740607628276231  0.7780972654768207  0.2609844648584160
  0.9259392591723715  0.2219027345231793  0.7390155641415829
  0.9259392591723715  0.7219027345231793  0.7609844358584171
  0.0740607628276231  0.2780972654768207  0.2390155351415841
  0.9259392591723715  0.2780972654768207  0.2390155351415841
  0.0740607628276231  0.7219027345231793  0.7609844358584171
  0.0740607628276231  0.2219027345231793  0.7390155641415829
  0.9259392591723715  0.7780972654768207  0.2609844648584160
  0.5740607408276285  0.2780972654768207  0.2609844648584160
  0.4259392301723727  0.7219027345231793  0.7390155641415829
  0.4259392301723727  0.2219027345231793  0.7609844358584171
  0.5740607408276285  0.7780972654768207  0.2390155351415841
  0.4259392301723727  0.7780972654768207  0.2390155351415841
  0.5740607408276285  0.2219027345231793  0.7609844358584171
  0.5740607408276285  0.7219027345231793  0.7390155641415829
  0.4259392301723727  0.2780972654768207  0.2609844648584160
  0.8021395807527369  0.5812613995880460  0.9323988711707758
  0.1978604192472631  0.4187386004119540  0.0676011288292242
  0.1978604192472631  0.9187386004119540  0.4323988711707758
  0.8021395807527369  0.0812613995880460  0.5676011288292242
  0.1978604192472631  0.0812613995880460  0.5676011288292242
  0.8021395807527369  0.9187386004119540  0.4323988711707758
  0.8021395807527369  0.4187386004119540  0.0676011288292242
  0.1978604192472631  0.5812613995880460  0.9323988711707758
  0.3021395807527369  0.0812613995880460  0.9323988711707758
  0.6978604192472631  0.9187386004119540  0.0676011288292242
  0.6978604192472631  0.4187386004119540  0.4323988711707758
  0.3021395807527369  0.5812613995880460  0.5676011288292242
  0.6978604192472631  0.5812613995880460  0.5676011288292242
  0.3021395807527369  0.4187386004119540  0.4323988711707758
  0.3021395807527369  0.9187386004119540  0.0676011288292242
  0.6978604192472631  0.0812613995880460  0.9323988711707758
  0.6973885245176510  0.5676903624502627  0.0814549576113769
  0.3026114754823490  0.4323096375497373  0.9185450423886231
  0.3026114754823490  0.9323096375497373  0.5814549576113769
  0.6973885245176510  0.0676903624502698  0.4185450423886231
  0.3026114754823490  0.0676903624502698  0.4185450423886231
  0.6973885245176510  0.9323096375497373  0.5814549576113769
  0.6973885245176510  0.4323096375497373  0.9185450423886231
  0.3026114754823490  0.5676903624502627  0.0814549576113769
  0.1973885245176510  0.0676903624502698  0.0814549576113769
  0.8026114754823490  0.9323096375497373  0.9185450423886231
  0.8026114754823490  0.4323096375497373  0.5814549576113769
  0.1973885245176510  0.5676903624502627  0.4185450423886231
  0.8026114754823490  0.5676903624502627  0.4185450423886231
  0.1973885245176510  0.4323096375497373  0.5814549576113769
  0.1973885245176510  0.9323096375497373  0.9185450423886231
  0.8026114754823490  0.0676903624502698  0.0814549576113769
  0.0000000000000000  0.6030114635694243  0.2065353250558186
  0.0000000000000000  0.3969885364305757  0.7934646449441789
  0.0000000000000000  0.8969885364305757  0.7065353550558211
  0.0000000000000000  0.1030114635694243  0.2934646749441814
  0.5000000000000000  0.1030114635694243  0.2065353250558186
  0.5000000000000000  0.8969885364305757  0.7934646449441789
  0.5000000000000000  0.3969885364305757  0.7065353550558211
  0.5000000000000000  0.6030114635694243  0.2934646749441814
  0.0000000000000000  0.2285443633084767  0.9221050406899164
  0.0000000000000000  0.7714556366915232  0.0778949593100836
  0.0000000000000000  0.2714556366915233  0.4221050406899164
  0.0000000000000000  0.7285443633084768  0.5778949593100836
  0.5000000000000000  0.7285443633084768  0.9221050406899164
  0.5000000000000000  0.2714556366915233  0.0778949593100836
  0.5000000000000000  0.7714556366915232  0.4221050406899164
  0.5000000000000000  0.2285443633084767  0.5778949593100836
  0.0000000000000000  0.2325420505043291  0.2984587140549563
  0.0000000000000000  0.7674579494956710  0.7015412709450460
  0.0000000000000000  0.2674579494956710  0.7984587290549540
  0.0000000000000000  0.7325420505043290  0.2015412709450461
  0.5000000000000000  0.7325420505043290  0.2984587140549563
  0.5000000000000000  0.2674579494956710  0.7015412709450460
  0.5000000000000000  0.7674579494956710  0.7984587290549540
  0.5000000000000000  0.2325420505043291  0.2015412709450461
  0.7496722301476558  0.5000000000000000 -0.0000000000000000
  0.2503277698523441  0.5000000000000000 -0.0000000000000000
  0.2503277698523441  0.0000000000000000  0.5000000000000000
  0.7496722301476558  0.0000000000000000  0.5000000000000000
  0.2496722301476559  0.0000000000000000 -0.0000000000000000
  0.7503277698523442  0.0000000000000000 -0.0000000000000000
  0.7503277698523442  0.5000000000000000  0.5000000000000000
  0.2496722301476559  0.5000000000000000  0.5000000000000000
 
  0.00000000E+00  0.00000000E+00  0.00000000E+00
  0.00000000E+00  0.00000000E+00  0.00000000E+00
  0.00000000E+00  0.00000000E+00  0.00000000E+00
  0.00000000E+00  0.00000000E+00  0.00000000E+00
  0.00000000E+00  0.00000000E+00  0.00000000E+00
  0.00000000E+00  0.00000000E+00  0.00000000E+00
  0.00000000E+00  0.00000000E+00  0.00000000E+00
  0.00000000E+00  0.00000000E+00  0.00000000E+00
  0.00000000E+00  0.00000000E+00  0.00000000E+00
  0.00000000E+00  0.00000000E+00  0.00000000E+00
  0.00000000E+00  0.00000000E+00  0.00000000E+00
  0.00000000E+00  0.00000000E+00  0.00000000E+00
  0.00000000E+00  0.00000000E+00  0.00000000E+00
  0.00000000E+00  0.00000000E+00  0.00000000E+00
  0.00000000E+00  0.00000000E+00  0.00000000E+00
  0.00000000E+00  0.00000000E+00  0.00000000E+00
  0.00000000E+00  0.00000000E+00  0.00000000E+00
  0.00000000E+00  0.00000000E+00  0.00000000E+00
  0.00000000E+00  0.00000000E+00  0.00000000E+00
  0.00000000E+00  0.00000000E+00  0.00000000E+00
  0.00000000E+00  0.00000000E+00  0.00000000E+00
  0.00000000E+00  0.00000000E+00  0.00000000E+00
  0.00000000E+00  0.00000000E+00  0.00000000E+00
  0.00000000E+00  0.00000000E+00  0.00000000E+00
  0.00000000E+00  0.00000000E+00  0.00000000E+00
  0.00000000E+00  0.00000000E+00  0.00000000E+00
  0.00000000E+00  0.00000000E+00  0.00000000E+00
  0.00000000E+00  0.00000000E+00  0.00000000E+00
  0.00000000E+00  0.00000000E+00  0.00000000E+00
  0.00000000E+00  0.00000000E+00  0.00000000E+00
  0.00000000E+00  0.00000000E+00  0.00000000E+00
  0.00000000E+00  0.00000000E+00  0.00000000E+00
  0.00000000E+00  0.00000000E+00  0.00000000E+00
  0.00000000E+00  0.00000000E+00  0.00000000E+00
  0.00000000E+00  0.00000000E+00  0.00000000E+00
  0.00000000E+00  0.00000000E+00  0.00000000E+00
  0.00000000E+00  0.00000000E+00  0.00000000E+00
  0.00000000E+00  0.00000000E+00  0.00000000E+00
  0.00000000E+00  0.00000000E+00  0.00000000E+00
  0.00000000E+00  0.00000000E+00  0.00000000E+00
  0.00000000E+00  0.00000000E+00  0.00000000E+00
  0.00000000E+00  0.00000000E+00  0.00000000E+00
  0.00000000E+00  0.00000000E+00  0.00000000E+00
  0.00000000E+00  0.00000000E+00  0.00000000E+00
  0.00000000E+00  0.00000000E+00  0.00000000E+00
  0.00000000E+00  0.00000000E+00  0.00000000E+00
  0.00000000E+00  0.00000000E+00  0.00000000E+00
  0.00000000E+00  0.00000000E+00  0.00000000E+00
  0.00000000E+00  0.00000000E+00  0.00000000E+00
  0.00000000E+00  0.00000000E+00  0.00000000E+00
  0.00000000E+00  0.00000000E+00  0.00000000E+00
  0.00000000E+00  0.00000000E+00  0.00000000E+00
  0.00000000E+00  0.00000000E+00  0.00000000E+00
  0.00000000E+00  0.00000000E+00  0.00000000E+00
  0.00000000E+00  0.00000000E+00  0.00000000E+00
  0.00000000E+00  0.00000000E+00  0.00000000E+00
  0.00000000E+00  0.00000000E+00  0.00000000E+00
  0.00000000E+00  0.00000000E+00  0.00000000E+00
  0.00000000E+00  0.00000000E+00  0.00000000E+00
  0.00000000E+00  0.00000000E+00  0.00000000E+00
  0.00000000E+00  0.00000000E+00  0.00000000E+00
  0.00000000E+00  0.00000000E+00  0.00000000E+00
  0.00000000E+00  0.00000000E+00  0.00000000E+00
  0.00000000E+00  0.00000000E+00  0.00000000E+00
  0.00000000E+00  0.00000000E+00  0.00000000E+00
  0.00000000E+00  0.00000000E+00  0.00000000E+00
  0.00000000E+00  0.00000000E+00  0.00000000E+00
  0.00000000E+00  0.00000000E+00  0.00000000E+00
  0.00000000E+00  0.00000000E+00  0.00000000E+00
  0.00000000E+00  0.00000000E+00  0.00000000E+00
  0.00000000E+00  0.00000000E+00  0.00000000E+00
  0.00000000E+00  0.00000000E+00  0.00000000E+00
  0.00000000E+00  0.00000000E+00  0.00000000E+00
  0.00000000E+00  0.00000000E+00  0.00000000E+00
  0.00000000E+00  0.00000000E+00  0.00000000E+00
  0.00000000E+00  0.00000000E+00  0.00000000E+00
  0.00000000E+00  0.00000000E+00  0.00000000E+00
  0.00000000E+00  0.00000000E+00  0.00000000E+00
  0.00000000E+00  0.00000000E+00  0.00000000E+00
  0.00000000E+00  0.00000000E+00  0.00000000E+00
