C                                       
   1.00000000000000     
     5.0891587581954800    0.0000000000000000    0.0000000000000000
     2.5445793790004814    4.4073407685077735    0.0000000000000000
     2.5445793790004814    1.4691135894377521    4.1552807257163602
   C 
    16
Direct
  0.0019649612981496  0.0000000000000000  0.0000000000000000
  0.5000000000000000  0.0000000000000000  0.0000000000000000
  0.0000000000000000  0.5000000000000000  0.0000000000000000
  0.5000000000000000  0.5000000000000000  0.0000000000000000
  0.0000000000000000  0.0000000000000000  0.5000000000000000
  0.5000000000000000  0.0000000000000000  0.5000000000000000
  0.0000000000000000  0.5000000000000000  0.5000000000000000
  0.5000000000000000  0.5000000000000000  0.5000000000000000
  0.1250000000000000  0.1250000000000000  0.1249999925000012
  0.6250000000000000  0.1250000000000000  0.1249999925000012
  0.1250000000000000  0.6250000000000000  0.1249999925000012
  0.6250000000000000  0.6250000000000000  0.1249999925000012
  0.1250000000000000  0.1250000000000000  0.6249999925000012
  0.6250000000000000  0.1250000000000000  0.6249999925000012
  0.1250000000000000  0.6250000000000000  0.6249999925000012
  0.6250000000000000  0.6250000000000000  0.6249999925000012
 
  0.00000000E+00  0.00000000E+00  0.00000000E+00
  0.00000000E+00  0.00000000E+00  0.00000000E+00
  0.00000000E+00  0.00000000E+00  0.00000000E+00
  0.00000000E+00  0.00000000E+00  0.00000000E+00
  0.00000000E+00  0.00000000E+00  0.00000000E+00
  0.00000000E+00  0.00000000E+00  0.00000000E+00
  0.00000000E+00  0.00000000E+00  0.00000000E+00
  0.00000000E+00  0.00000000E+00  0.00000000E+00
  0.00000000E+00  0.00000000E+00  0.00000000E+00
  0.00000000E+00  0.00000000E+00  0.00000000E+00
  0.00000000E+00  0.00000000E+00  0.00000000E+00
  0.00000000E+00  0.00000000E+00  0.00000000E+00
  0.00000000E+00  0.00000000E+00  0.00000000E+00
  0.00000000E+00  0.00000000E+00  0.00000000E+00
  0.00000000E+00  0.00000000E+00  0.00000000E+00
  0.00000000E+00  0.00000000E+00  0.00000000E+00
