C
   1.0
     4.9328744979918744   -0.0019192859628064    0.0000000000000000
    -2.4680993992966123    4.2710349858760690    0.0000000000000000
     0.0000000000000000    0.0000000000000000   14.1919465582318001
  32
Direct
  0.4996381211840140  0.0003619019857899  0.1250000000000000
  0.9996381211840140  0.0003619019857899  0.1250000000000000
  0.4996381211840140  0.5003619019857899  0.1250000000000000
  0.9996381211840140  0.5003619019857898  0.1250000000000000
  0.4996381211840140  0.0003619019857899  0.6249999999999999
  0.9996381211840140  0.0003619019857899  0.6249999999999999
  0.4996381211840140  0.5003619019857899  0.6249999999999999
  0.9996381211840140  0.5003619019857898  0.6249999999999999
  0.0003619019857898  0.4996381211840140  0.3750000000000000
  0.5003619019857898  0.4996381211840139  0.3750000000000000
  0.0003619019857897  0.9996381211840137  0.3750000000000000
  0.5003619019857897  0.9996381211840139  0.3750000000000000
  0.0003619019857898  0.4996381211840140  0.8749999999999999
  0.5003619019857898  0.4996381211840139  0.8749999999999999
  0.0003619019857897  0.9996381211840137  0.8749999999999999
  0.5003619019857897  0.9996381211840139  0.8749999999999999
  0.1669843056333908  0.3336812519803823  0.1256655662835776
  0.6663187393498132  0.3336812519803823  0.1250000000000000
  0.1663187393498131  0.8336812519803822  0.1250000000000000
  0.6663187393498131  0.8336812519803823  0.1250000000000000
  0.1663187393498132  0.3336812519803823  0.6249999999999999
  0.6663187393498132  0.3336812519803823  0.6249999999999999
  0.1663187393498131  0.8336812519803822  0.6249999999999999
  0.6663187393498131  0.8336812519803823  0.6249999999999999
  0.3336812519803823  0.1663187393498132  0.3750000000000000
  0.8336812519803825  0.1663187393498132  0.3750000000000000
  0.3336812519803823  0.6663187393498132  0.3750000000000000
  0.8336812519803825  0.6663187393498131  0.3750000000000000
  0.3336812519803823  0.1663187393498132  0.8749999999999999
  0.8336812519803825  0.1663187393498132  0.8749999999999999
  0.3336812519803823  0.6663187393498132  0.8749999999999999
  0.8336812519803825  0.6663187393498131  0.8749999999999999
