C                                       
   1.00000000000000     
     4.9328744979918744   -0.0019192859628064    0.0000000000000000
    -2.4680993992966123    4.2710349858760690    0.0000000000000000
     0.0000000000000000    0.0000000000000000   14.1919465582318001
   C 
    32
Direct
  0.5003036874675928  0.0003619019857908  0.1256655662835797
  0.9996381211840131  0.0003619019857908  0.1250000000000000
  0.4996381211840131  0.5003619019857908  0.1250000000000000
  0.9996381211840131  0.5003619019857908  0.1250000000000000
  0.4996381211840131  0.0003619019857908  0.6250000000000000
  0.9996381211840131  0.0003619019857908  0.6250000000000000
  0.4996381211840131  0.5003619019857908  0.6250000000000000
  0.9996381211840131  0.5003619019857908  0.6250000000000000
  0.0003619019857908  0.4996381211840131  0.3750000000000000
  0.5003619019857908  0.4996381211840131  0.3750000000000000
  0.0003619019857908  0.9996381211840131  0.3750000000000000
  0.5003619019857908  0.9996381211840131  0.3750000000000000
  0.0003619019857908  0.4996381211840131  0.8750000000000000
  0.5003619019857908  0.4996381211840131  0.8750000000000000
  0.0003619019857908  0.9996381211840131  0.8750000000000000
  0.5003619019857908  0.9996381211840131  0.8750000000000000
  0.1663187393498120  0.3336812519803800  0.1250000000000000
  0.6663187393498120  0.3336812519803800  0.1250000000000000
  0.1663187393498120  0.8336812519803800  0.1250000000000000
  0.6663187393498120  0.8336812519803800  0.1250000000000000
  0.1663187393498120  0.3336812519803800  0.6250000000000000
  0.6663187393498120  0.3336812519803800  0.6250000000000000
  0.1663187393498120  0.8336812519803800  0.6250000000000000
  0.6663187393498120  0.8336812519803800  0.6250000000000000
  0.3336812519803800  0.1663187393498120  0.3750000000000000
  0.8336812519803800  0.1663187393498120  0.3750000000000000
  0.3336812519803800  0.6663187393498120  0.3750000000000000
  0.8336812519803800  0.6663187393498120  0.3750000000000000
  0.3336812519803800  0.1663187393498120  0.8750000000000000
  0.8336812519803800  0.1663187393498120  0.8750000000000000
  0.3336812519803800  0.6663187393498120  0.8750000000000000
  0.8336812519803800  0.6663187393498120  0.8750000000000000
 
  0.00000000E+00  0.00000000E+00  0.00000000E+00
  0.00000000E+00  0.00000000E+00  0.00000000E+00
  0.00000000E+00  0.00000000E+00  0.00000000E+00
  0.00000000E+00  0.00000000E+00  0.00000000E+00
  0.00000000E+00  0.00000000E+00  0.00000000E+00
  0.00000000E+00  0.00000000E+00  0.00000000E+00
  0.00000000E+00  0.00000000E+00  0.00000000E+00
  0.00000000E+00  0.00000000E+00  0.00000000E+00
  0.00000000E+00  0.00000000E+00  0.00000000E+00
  0.00000000E+00  0.00000000E+00  0.00000000E+00
  0.00000000E+00  0.00000000E+00  0.00000000E+00
  0.00000000E+00  0.00000000E+00  0.00000000E+00
  0.00000000E+00  0.00000000E+00  0.00000000E+00
  0.00000000E+00  0.00000000E+00  0.00000000E+00
  0.00000000E+00  0.00000000E+00  0.00000000E+00
  0.00000000E+00  0.00000000E+00  0.00000000E+00
  0.00000000E+00  0.00000000E+00  0.00000000E+00
  0.00000000E+00  0.00000000E+00  0.00000000E+00
  0.00000000E+00  0.00000000E+00  0.00000000E+00
  0.00000000E+00  0.00000000E+00  0.00000000E+00
  0.00000000E+00  0.00000000E+00  0.00000000E+00
  0.00000000E+00  0.00000000E+00  0.00000000E+00
  0.00000000E+00  0.00000000E+00  0.00000000E+00
  0.00000000E+00  0.00000000E+00  0.00000000E+00
  0.00000000E+00  0.00000000E+00  0.00000000E+00
  0.00000000E+00  0.00000000E+00  0.00000000E+00
  0.00000000E+00  0.00000000E+00  0.00000000E+00
  0.00000000E+00  0.00000000E+00  0.00000000E+00
  0.00000000E+00  0.00000000E+00  0.00000000E+00
  0.00000000E+00  0.00000000E+00  0.00000000E+00
  0.00000000E+00  0.00000000E+00  0.00000000E+00
  0.00000000E+00  0.00000000E+00  0.00000000E+00
