CIF file                                
   1.00000000000000     
     2.4664372489959372   -0.0009596429814032    0.0000000000000000
    -1.2340496996483061    2.1355174929380345    0.0000000000000000
     0.0000000000000000    0.0000000000000000    3.6474629004801402
   C 
     4
Direct
  0.9992543525181578  0.0007456938214499  0.2500000000000000
  0.0007456938214499  0.9992543525181578  0.7500000000000000
  0.3326668721337434  0.6673331105266478  0.2500000000000000
  0.6673331105266478  0.3326668721337434  0.7500000000000000
 
  0.00000000E+00  0.00000000E+00  0.00000000E+00
  0.00000000E+00  0.00000000E+00  0.00000000E+00
  0.00000000E+00  0.00000000E+00  0.00000000E+00
  0.00000000E+00  0.00000000E+00  0.00000000E+00
