C
   1.0
     4.9328746796000003    0.0000000000000000    0.0000000000000000
    -2.4697609549999999    4.2700741714000001    0.0000000000000000
     0.0000000000000000    0.0000000000000000   40.0000000000000000
  16
Direct
  0.4999214273504336  0.0003267186807536  0.0416965615270517
  0.9996733069733821  0.0003267186807536  0.0414484411500000
  0.4996733069733819  0.5003267186807536  0.0414484411500000
  0.9996733069733820  0.5003267186807536  0.0414484411500000
  0.4996733069733819  0.0003267186807536  0.5414484411500000
  0.9996733069733821  0.0003267186807536  0.5414484411500000
  0.4996733069733819  0.5003267186807536  0.5414484411500000
  0.9996733069733820  0.5003267186807536  0.5414484411500000
  0.1662924589060043  0.3337075413218898  0.0414484411500000
  0.6662924589060043  0.3337075413218898  0.0414484411500000
  0.1662924589060043  0.8337075413218897  0.0414484411500000
  0.6662924589060043  0.8337075413218897  0.0414484411500000
  0.1662924589060043  0.3337075413218898  0.5414484411500000
  0.6662924589060043  0.3337075413218898  0.5414484411500000
  0.1662924589060043  0.8337075413218897  0.5414484411500000
  0.6662924589060043  0.8337075413218897  0.5414484411500000
