CIF file                                
   1.00000000000000     
     2.4664372489959372   -0.0009596429814032    0.0000000000000000
    -1.2340496996483061    2.1355174929380345    0.0000000000000000
     0.0000000000000000    0.0000000000000000    6.6317507281457058
   C 
     2
Direct
  0.9993466088991596  0.0006534374404481  0.2500000000000000
  0.3325849249464241  0.6674150577139670  0.2500000000000000
