CIF file                                
1.0
        2.4664373398         0.0000000000         0.0000000000
       -1.2348804775         2.1350370857         0.0000000000
        0.0000000000         0.0000000000         20.000000000
    C
    2
Cartesian
     2.464018887         0.001395113         1.657937646
    -0.003877996         1.424955953         1.657937646
