CIF file                                
   1.00000000000000     
     2.4671554423831878   -0.0001112000195529   -0.0000000000000000
    -1.2336740231833048    2.1365636881370342   -0.0000000000000000
     0.0000000000000000    0.0000000000000000    4.7080196190000000
   C 
     4
Direct
 -0.0000003028331679  0.0000003491727755  0.2500000000000000
  0.0000003491727755 -0.0000003028331679  0.7500000000000000
  0.3332989299567187  0.6667010527036724  0.2500000000000000
  0.6667010527036724  0.3332989299567187  0.7500000000000000
 
  0.00000000E+00  0.00000000E+00  0.00000000E+00
  0.00000000E+00  0.00000000E+00  0.00000000E+00
  0.00000000E+00  0.00000000E+00  0.00000000E+00
  0.00000000E+00  0.00000000E+00  0.00000000E+00
