methane-low                             
   1.00662271000000     
    11.7079000473000008    0.0000000000000000    0.0000000000000000
     0.0000000000000000    8.1892995834000004    0.0000000000000000
     0.0000000000000000    0.0000000000000000    8.1842002868999995
   H    C 
    64    16
Direct
  0.0774795051245969  0.7877935966342270  0.1723780701487593
  0.9225205168753978  0.2122064033657731  0.8276219588512396
  0.9225205168753978  0.7122064033657730  0.6723780411487604
  0.0774795051245969  0.2877935966342269  0.3276219298512407
  0.9225205168753978  0.2877935966342269  0.3276219298512407
  0.0774795051245969  0.7122064033657730  0.6723780411487604
  0.0774795051245969  0.2122064033657731  0.8276219588512396
  0.9225205168753978  0.7877935966342270  0.1723780701487593
  0.5774794831246022  0.2877935966342269  0.1723780701487593
  0.4225204878753990  0.7122064033657730  0.8276219588512396
  0.4225204878753990  0.2122064033657731  0.6723780411487604
  0.5774794831246022  0.7877935966342270  0.3276219298512407
  0.4225204878753990  0.7877935966342270  0.3276219298512407
  0.5774794831246022  0.2122064033657731  0.6723780411487604
  0.5774794831246022  0.7122064033657730  0.8276219588512396
  0.4225204878753990  0.2877935966342269  0.1723780701487593
  0.8054905760841868  0.5864698522068382  0.9278616609308112
  0.1945094239158132  0.4135301477931618  0.0721383390691888
  0.1945094239158132  0.9135301477931618  0.4278616609308112
  0.8054905760841868  0.0864698522068382  0.5721383390691888
  0.1945094239158132  0.0864698522068382  0.5721383390691888
  0.8054905760841868  0.9135301477931618  0.4278616609308112
  0.8054905760841868  0.4135301477931618  0.0721383390691888
  0.1945094239158132  0.5864698522068382  0.9278616609308112
  0.3054905760841868  0.0864698522068382  0.9278616609308112
  0.6945094239158132  0.9135301477931618  0.0721383390691888
  0.6945094239158132  0.4135301477931618  0.4278616609308112
  0.3054905760841868  0.5864698522068382  0.5721383390691888
  0.6945094239158132  0.5864698522068382  0.5721383390691888
  0.3054905760841868  0.4135301477931618  0.4278616609308112
  0.3054905760841868  0.9135301477931618  0.0721383390691888
  0.6945094239158132  0.0864698522068382  0.9278616609308112
  0.6941201978465672  0.5721035630419457  0.0865021016185351
  0.3058798021534328  0.4278964369580543  0.9134978983814649
  0.3058798021534328  0.9278964369580543  0.5865021016185351
  0.6941201978465672  0.0721035630419457  0.4134978983814648
  0.3058798021534328  0.0721035630419457  0.4134978983814648
  0.6941201978465672  0.9278964369580543  0.5865021016185351
  0.6941201978465672  0.4278964369580543  0.9134978983814649
  0.3058798021534328  0.5721035630419457  0.0865021016185351
  0.1941201978465672  0.0721035630419457  0.0865021016185351
  0.8058798021534328  0.9278964369580543  0.9134978983814649
  0.8058798021534328  0.4278964369580543  0.5865021016185351
  0.1941201978465672  0.5721035630419457  0.4134978983814648
  0.8058798021534328  0.5721035630419457  0.4134978983814648
  0.1941201978465672  0.4278964369580543  0.5865021016185351
  0.1941201978465672  0.9278964369580543  0.9134978983814649
  0.8058798021534328  0.0721035630419457  0.0865021016185351
 -0.0000000000000000  0.5994837306449546  0.2024518455567830
 -0.0000000000000000  0.4005162693550454  0.7975481244432145
 -0.0000000000000000  0.9005162693550454  0.7024518755567855
 -0.0000000000000000  0.0994837306449546  0.2975481544432170
  0.5000000000000000  0.0994837306449546  0.2024518455567830
  0.5000000000000000  0.9005162693550454  0.7975481244432145
  0.5000000000000000  0.4005162693550454  0.7024518755567855
  0.5000000000000000  0.5994837306449546  0.2975481544432170
 -0.0000000000000000  0.3389051578506406  0.6089884175441580
 -0.0000000000000000  0.6610948421493592 -0.6089884175441580
 -0.0000000000000000  0.1610948421493594  0.1089884175441580
 -0.0000000000000000 -0.1610948421493593 -0.1089884175441580
  0.5000000000000000 -0.1610948421493593  0.6089884175441580
  0.5000000000000000  0.1610948421493592 -0.6089884175441580
  0.5000000000000000  0.6610948421493592  0.1089884175441580
  0.5000000000000000  0.3389051578506407 -0.1089884175441580
 -0.0000000000000000  0.3287324152457172 -0.5766111901254005
 -0.0000000000000000  0.6712675847542827  0.5766111751254028
 -0.0000000000000000  0.1712675847542826 -0.0766111751254028
 -0.0000000000000000 -0.1712675847542827  0.0766111751254028
  0.5000000000000000 -0.1712675847542828 -0.5766111901254005
  0.5000000000000000  0.1712675847542826  0.5766111751254028
  0.5000000000000000  0.6712675847542827 -0.0766111751254028
  0.5000000000000000  0.3287324152457173  0.0766111751254028
  0.7497931952050888  0.5000000000000000  0.0000000000000000
  0.2502068047949112  0.5000000000000000  0.0000000000000000
  0.2502068047949112  0.0000000000000000  0.5000000000000000
  0.7497931952050888  0.0000000000000000  0.5000000000000000
  0.2497931952050888  0.0000000000000000  0.0000000000000000
  0.7502068047949112  0.0000000000000000  0.0000000000000000
  0.7502068047949112  0.5000000000000000  0.5000000000000000
  0.2497931952050888  0.5000000000000000  0.5000000000000000
 
  0.00000000E+00  0.00000000E+00  0.00000000E+00
  0.00000000E+00  0.00000000E+00  0.00000000E+00
  0.00000000E+00  0.00000000E+00  0.00000000E+00
  0.00000000E+00  0.00000000E+00  0.00000000E+00
  0.00000000E+00  0.00000000E+00  0.00000000E+00
  0.00000000E+00  0.00000000E+00  0.00000000E+00
  0.00000000E+00  0.00000000E+00  0.00000000E+00
  0.00000000E+00  0.00000000E+00  0.00000000E+00
  0.00000000E+00  0.00000000E+00  0.00000000E+00
  0.00000000E+00  0.00000000E+00  0.00000000E+00
  0.00000000E+00  0.00000000E+00  0.00000000E+00
  0.00000000E+00  0.00000000E+00  0.00000000E+00
  0.00000000E+00  0.00000000E+00  0.00000000E+00
  0.00000000E+00  0.00000000E+00  0.00000000E+00
  0.00000000E+00  0.00000000E+00  0.00000000E+00
  0.00000000E+00  0.00000000E+00  0.00000000E+00
  0.00000000E+00  0.00000000E+00  0.00000000E+00
  0.00000000E+00  0.00000000E+00  0.00000000E+00
  0.00000000E+00  0.00000000E+00  0.00000000E+00
  0.00000000E+00  0.00000000E+00  0.00000000E+00
  0.00000000E+00  0.00000000E+00  0.00000000E+00
  0.00000000E+00  0.00000000E+00  0.00000000E+00
  0.00000000E+00  0.00000000E+00  0.00000000E+00
  0.00000000E+00  0.00000000E+00  0.00000000E+00
  0.00000000E+00  0.00000000E+00  0.00000000E+00
  0.00000000E+00  0.00000000E+00  0.00000000E+00
  0.00000000E+00  0.00000000E+00  0.00000000E+00
  0.00000000E+00  0.00000000E+00  0.00000000E+00
  0.00000000E+00  0.00000000E+00  0.00000000E+00
  0.00000000E+00  0.00000000E+00  0.00000000E+00
  0.00000000E+00  0.00000000E+00  0.00000000E+00
  0.00000000E+00  0.00000000E+00  0.00000000E+00
  0.00000000E+00  0.00000000E+00  0.00000000E+00
  0.00000000E+00  0.00000000E+00  0.00000000E+00
  0.00000000E+00  0.00000000E+00  0.00000000E+00
  0.00000000E+00  0.00000000E+00  0.00000000E+00
  0.00000000E+00  0.00000000E+00  0.00000000E+00
  0.00000000E+00  0.00000000E+00  0.00000000E+00
  0.00000000E+00  0.00000000E+00  0.00000000E+00
  0.00000000E+00  0.00000000E+00  0.00000000E+00
  0.00000000E+00  0.00000000E+00  0.00000000E+00
  0.00000000E+00  0.00000000E+00  0.00000000E+00
  0.00000000E+00  0.00000000E+00  0.00000000E+00
  0.00000000E+00  0.00000000E+00  0.00000000E+00
  0.00000000E+00  0.00000000E+00  0.00000000E+00
  0.00000000E+00  0.00000000E+00  0.00000000E+00
  0.00000000E+00  0.00000000E+00  0.00000000E+00
  0.00000000E+00  0.00000000E+00  0.00000000E+00
  0.00000000E+00  0.00000000E+00  0.00000000E+00
  0.00000000E+00  0.00000000E+00  0.00000000E+00
  0.00000000E+00  0.00000000E+00  0.00000000E+00
  0.00000000E+00  0.00000000E+00  0.00000000E+00
  0.00000000E+00  0.00000000E+00  0.00000000E+00
  0.00000000E+00  0.00000000E+00  0.00000000E+00
  0.00000000E+00  0.00000000E+00  0.00000000E+00
  0.00000000E+00  0.00000000E+00  0.00000000E+00
  0.00000000E+00  0.00000000E+00  0.00000000E+00
  0.00000000E+00  0.00000000E+00  0.00000000E+00
  0.00000000E+00  0.00000000E+00  0.00000000E+00
  0.00000000E+00  0.00000000E+00  0.00000000E+00
  0.00000000E+00  0.00000000E+00  0.00000000E+00
  0.00000000E+00  0.00000000E+00  0.00000000E+00
  0.00000000E+00  0.00000000E+00  0.00000000E+00
  0.00000000E+00  0.00000000E+00  0.00000000E+00
  0.00000000E+00  0.00000000E+00  0.00000000E+00
  0.00000000E+00  0.00000000E+00  0.00000000E+00
  0.00000000E+00  0.00000000E+00  0.00000000E+00
  0.00000000E+00  0.00000000E+00  0.00000000E+00
  0.00000000E+00  0.00000000E+00  0.00000000E+00
  0.00000000E+00  0.00000000E+00  0.00000000E+00
  0.00000000E+00  0.00000000E+00  0.00000000E+00
  0.00000000E+00  0.00000000E+00  0.00000000E+00
  0.00000000E+00  0.00000000E+00  0.00000000E+00
  0.00000000E+00  0.00000000E+00  0.00000000E+00
  0.00000000E+00  0.00000000E+00  0.00000000E+00
  0.00000000E+00  0.00000000E+00  0.00000000E+00
  0.00000000E+00  0.00000000E+00  0.00000000E+00
  0.00000000E+00  0.00000000E+00  0.00000000E+00
  0.00000000E+00  0.00000000E+00  0.00000000E+00
  0.00000000E+00  0.00000000E+00  0.00000000E+00
