C
   1.0
     5.2672441260341696    0.0000000000000000    0.0000000000000000
     2.6336220629164226    4.5615672210990192    0.0000000000000000
     2.6336220629164226    1.5205224069658985    4.3006868196647048
  16
Direct
  0.0000000000000000  0.0000000000000000  0.0000000000000000
  0.5000000000000000  0.0000000000000000  0.0000000000000000
  0.0000000000000000  0.5000000000000000  0.0000000000000000
  0.5000000000000000  0.5000000000000000  0.0000000000000000
  0.0000000000000000  0.0000000000000000  0.5000000000000000
  0.5000000000000000  0.0000000000000000  0.5000000000000000
  0.0000000000000000  0.5000000000000000  0.5000000000000000
  0.5000000000000000  0.5000000000000000  0.5000000000000000
  0.1250000000000000  0.1250000000000000  0.1249999925000000
  0.6250000000000000  0.1250000000000000  0.1249999925000000
  0.1250000000000000  0.6250000000000000  0.1249999925000000
  0.6250000000000000  0.6250000000000000  0.1249999925000000
  0.1250000000000000  0.1250000000000000  0.6249999925000000
  0.6250000000000000  0.1250000000000000  0.6249999925000000
  0.1250000000000000  0.6250000000000000  0.6249999925000000
  0.6250000000000000  0.6250000000000000  0.6249999925000000
