CIF file                                
   1.00000000000000     
     2.4661411108786422    0.0029395190993480    0.0000000000000000
    -1.2305248571743250    2.1372106108455267    0.0000000000000000
     0.0000000000000000    0.0000000000000000    7.6595062155903397
   C 
     4
Direct
  0.9995091379257469  0.0004909084138607  0.2500000000000000
  0.0004909084138607  0.9995091379257469  0.7500000000000000
  0.3329258260505119  0.6670741566098792  0.2500000000000000
  0.6670741566098792  0.3329258260505119  0.7500000000000000
 
  0.00000000E+00  0.00000000E+00  0.00000000E+00
  0.00000000E+00  0.00000000E+00  0.00000000E+00
  0.00000000E+00  0.00000000E+00  0.00000000E+00
  0.00000000E+00  0.00000000E+00  0.00000000E+00
