CIF file                                
   1.00000000000000     
     2.4664372489959372   -0.0009596429814032    0.0000000000000000
    -1.2340496996483061    2.1355174929380345   -0.0000000000000000
    -0.0000000000000000   -0.0000000000000000    6.5654332208642400
   C 
     4
Direct
 -0.0006533911008421  0.0006534374404501  0.2500000000000000
  0.0006534374404497 -0.0006533911008425  0.7500000000000000
  0.3325849249464221  0.6674150577139685  0.2500000000000000
  0.6674150577139691  0.3325849249464227  0.7500000000000000
 
  0.00000000E+00  0.00000000E+00  0.00000000E+00
  0.00000000E+00  0.00000000E+00  0.00000000E+00
  0.00000000E+00  0.00000000E+00  0.00000000E+00
  0.00000000E+00  0.00000000E+00  0.00000000E+00
