C2 H4                                   
   1.00662271000000     
     4.8699998856000004    0.0000000000000000    0.0000000000000000
     0.0000000000000000    6.4600000380999996    0.0000000000000000
     0.0000000000000000    0.0000000000000000    4.1400000953999996
   C    H 
     4     8
Direct
  0.8878157445396820  0.0535849831897862  0.9647183328036674
  0.1121842704603228  0.9464150018102089  0.0352816411963305
  0.6121842554603180  0.5535849981897911  0.5352816671963326
  0.3878157445396820  0.4464150018102091  0.4647183628036698
  0.8084406427975933  0.1741080372994160  0.1218852992222387
  0.1915593422024017  0.8258919767005851  0.8781147087777619
  0.6915593572024067  0.6741080232994149  0.3781147087777620
  0.3084406427975935  0.3258919767005852  0.6218852912222381
  0.7719021433802405  0.0259447419538004  0.7452034229733403
  0.2280978266197570  0.9740552640462000  0.2547965470266572
  0.7280978566197595  0.5259447359538000  0.7547965770266597
  0.2719021733802430  0.4740552640462001  0.2452034529733428
 
  0.00000000E+00  0.00000000E+00  0.00000000E+00
  0.00000000E+00  0.00000000E+00  0.00000000E+00
  0.00000000E+00  0.00000000E+00  0.00000000E+00
  0.00000000E+00  0.00000000E+00  0.00000000E+00
  0.00000000E+00  0.00000000E+00  0.00000000E+00
  0.00000000E+00  0.00000000E+00  0.00000000E+00
  0.00000000E+00  0.00000000E+00  0.00000000E+00
  0.00000000E+00  0.00000000E+00  0.00000000E+00
  0.00000000E+00  0.00000000E+00  0.00000000E+00
  0.00000000E+00  0.00000000E+00  0.00000000E+00
  0.00000000E+00  0.00000000E+00  0.00000000E+00
  0.00000000E+00  0.00000000E+00  0.00000000E+00
