C2 H4                                   
   1.01961282200000     
     4.8699998856000004    0.0000000000000000    0.0000000000000000
     0.0000000000000000    6.4600000380999996    0.0000000000000000
     0.0000000000000000    0.0000000000000000    4.1400000953999996
   C    H 
     4     8
Direct
  0.8900059505908986  0.0489979424631053  0.9576107768620123
  0.1099940644091062  0.9510020425368900  0.0423891971379855
  0.6099940494091014  0.5489979574631100  0.5423892231379877
  0.3900059505908986  0.4510020425368900  0.4576108068620148
  0.8118820666256589  0.1710315147377482  0.1195798781268914
  0.1881179183743363  0.8289684992622529  0.8804201298731092
  0.6881179333743411  0.6710315007377471  0.3804201298731093
  0.3118820666256589  0.3289684992622529  0.6195798701268908
  0.7616829999491642  0.0289056505003857  0.7379241208089543
  0.2383169700508333  0.9710943554996148  0.2620758491910432
  0.7383170000508358  0.5289056445003852  0.7620758791910457
  0.2616830299491668  0.4710943554996148  0.2379241508089568
 
  0.00000000E+00  0.00000000E+00  0.00000000E+00
  0.00000000E+00  0.00000000E+00  0.00000000E+00
  0.00000000E+00  0.00000000E+00  0.00000000E+00
  0.00000000E+00  0.00000000E+00  0.00000000E+00
  0.00000000E+00  0.00000000E+00  0.00000000E+00
  0.00000000E+00  0.00000000E+00  0.00000000E+00
  0.00000000E+00  0.00000000E+00  0.00000000E+00
  0.00000000E+00  0.00000000E+00  0.00000000E+00
  0.00000000E+00  0.00000000E+00  0.00000000E+00
  0.00000000E+00  0.00000000E+00  0.00000000E+00
  0.00000000E+00  0.00000000E+00  0.00000000E+00
  0.00000000E+00  0.00000000E+00  0.00000000E+00
