C2 H4                                   
   1.01961282200000     
     4.8699998856000004    0.0000000000000000    0.0000000000000000
     0.0000000000000000    6.4600000380999996    0.0000000000000000
     0.0000000000000000    0.0000000000000000    4.1400000953999996
   C    H 
     4     8
Direct
  0.8892213617706345  0.0529734467398517  0.9652837259989736
  0.1107786532293706  0.9470265382601437  0.0347162480010243
  0.6107786382293655  0.5529734617398563  0.5347162740010264
  0.3892213617706343  0.4470265382601437  0.4652837559989760
  0.8104489589899028  0.1720429732150361  0.1200827260441782
  0.1895510260100924  0.8279570407849650  0.8799172819558224
  0.6895510410100972  0.6720429592150350  0.3799172819558225
  0.3104489589899029  0.3279570407849652  0.6200827180441776
  0.7746364358293251  0.0257654900238010  0.7485171098775041
  0.2253635341706724  0.9742345159761995  0.2514828601224934
  0.7253635641706749  0.5257654840238005  0.7514828901224959
  0.2746364658293277  0.4742345159761995  0.2485171398775066
 
  0.00000000E+00  0.00000000E+00  0.00000000E+00
  0.00000000E+00  0.00000000E+00  0.00000000E+00
  0.00000000E+00  0.00000000E+00  0.00000000E+00
  0.00000000E+00  0.00000000E+00  0.00000000E+00
  0.00000000E+00  0.00000000E+00  0.00000000E+00
  0.00000000E+00  0.00000000E+00  0.00000000E+00
  0.00000000E+00  0.00000000E+00  0.00000000E+00
  0.00000000E+00  0.00000000E+00  0.00000000E+00
  0.00000000E+00  0.00000000E+00  0.00000000E+00
  0.00000000E+00  0.00000000E+00  0.00000000E+00
  0.00000000E+00  0.00000000E+00  0.00000000E+00
  0.00000000E+00  0.00000000E+00  0.00000000E+00
