C6 H6                                   
  0.965489385000000     
     7.3550000000000004    0.0000000000000000    0.0000000000000000
     0.0000000000000000    9.3710000000000004    0.0000000000000000
     0.0000000000000000    0.0000000000000000    6.7000000000000002
   C    H 
    24    24
Direct
  0.9423503381522483  0.1476076427494270  0.0031737556056772
  0.0576496428477535  0.8523923572505728 -0.0031737296056750
  0.5576496618477517  0.8523923572505728  0.5031737266056715
  0.4423503681522438  0.1476076427494270  0.4968262443943229
  0.0576496428477535  0.6476076427494272  0.4968262443943229
  0.9423503381522483  0.3523923572505731  0.5031737266056715
  0.4423503681522438  0.3523923572505731 -0.0031737296056750
  0.5576496618477516  0.6476076427494272  0.0031737556056772
  0.0812843674852700  0.0983935340662652  0.1395338193790455
  0.9187156475147275  0.9016064429337364  0.8604661506209520
  0.4187156475147277  0.9016064429337364  0.6395338493790480
  0.5812843524852725  0.0983935340662652  0.3604661806209544
  0.9187156475147275  0.5983935570662636  0.3604661806209544
  0.0812843674852700  0.4016064729337390  0.6395338493790480
  0.5812843524852725  0.4016064729337390  0.8604661506209520
  0.4187156475147276  0.5983935570662636  0.1395338193790455
  0.8605172193943773  0.0489800066316198  0.8634566956989634
  0.1394827806056225  0.9510199713683781  0.1365433043010364
  0.6394827806056227  0.9510199713683781  0.3634566956989637
  0.3605172193943775  0.0489800066316198  0.6365433043010366
  0.1394827806056225  0.5489800286316219  0.6365433043010366
  0.8605172193943773  0.4510200003683773  0.3634566956989638
  0.3605172193943775  0.4510200003683773  0.1365433043010364
  0.6394827806056227  0.5489800286316219  0.8634566956989634
  0.8981943026488602  0.2629146042112238  0.0058584165407453
  0.1018056823511420  0.7370854097887706 -0.0058583875407466
  0.6018056973511398  0.7370854097887706  0.5058583875407470
  0.3981943026488604  0.2629146042112238  0.4941415834592545
  0.1018056823511420  0.7629145902112295  0.4941415834592545
  0.8981943026488602  0.2370854097887704  0.5058583875407470
  0.3981943026488604  0.2370854097887704 -0.0058583875407466
  0.6018056973511398  0.7629145902112294  0.0058584165407453
  0.1443426542508958  0.1745918173130771  0.2496030377041603
  0.8556573317491034  0.8254081676869180  0.7503969472958419
  0.3556573317491031  0.8254081676869180  0.7496030527041581
  0.6443426682508966  0.1745918173130771  0.2503969472958419
  0.8556573317491034  0.6745918323130820  0.2503969472958419
  0.1443426542508957  0.3254081676869182  0.7496030527041581
  0.6443426682508966  0.3254081676869182  0.7503969472958419
  0.3556573317491031  0.6745918323130820  0.2496030377041603
  0.7510973035152831  0.0855392920143026  0.7570337402588081
  0.2489026814847193  0.9144607229857022  0.2429662747411898
  0.7489026964847169  0.9144607229857022  0.2570337402588081
  0.2510973035152830  0.0855392920143027  0.7429662597411920
  0.2489026814847193  0.5855392770142978  0.7429662597411919
  0.7510973035152831  0.4144607229857020  0.2570337402588081
  0.2510973035152830  0.4144607229857020  0.2429662747411898
  0.7489026964847169  0.5855392770142978  0.7570337402588081
 
  0.00000000E+00  0.00000000E+00  0.00000000E+00
  0.00000000E+00  0.00000000E+00  0.00000000E+00
  0.00000000E+00  0.00000000E+00  0.00000000E+00
  0.00000000E+00  0.00000000E+00  0.00000000E+00
  0.00000000E+00  0.00000000E+00  0.00000000E+00
  0.00000000E+00  0.00000000E+00  0.00000000E+00
  0.00000000E+00  0.00000000E+00  0.00000000E+00
  0.00000000E+00  0.00000000E+00  0.00000000E+00
  0.00000000E+00  0.00000000E+00  0.00000000E+00
  0.00000000E+00  0.00000000E+00  0.00000000E+00
  0.00000000E+00  0.00000000E+00  0.00000000E+00
  0.00000000E+00  0.00000000E+00  0.00000000E+00
  0.00000000E+00  0.00000000E+00  0.00000000E+00
  0.00000000E+00  0.00000000E+00  0.00000000E+00
  0.00000000E+00  0.00000000E+00  0.00000000E+00
  0.00000000E+00  0.00000000E+00  0.00000000E+00
  0.00000000E+00  0.00000000E+00  0.00000000E+00
  0.00000000E+00  0.00000000E+00  0.00000000E+00
  0.00000000E+00  0.00000000E+00  0.00000000E+00
  0.00000000E+00  0.00000000E+00  0.00000000E+00
  0.00000000E+00  0.00000000E+00  0.00000000E+00
  0.00000000E+00  0.00000000E+00  0.00000000E+00
  0.00000000E+00  0.00000000E+00  0.00000000E+00
  0.00000000E+00  0.00000000E+00  0.00000000E+00
  0.00000000E+00  0.00000000E+00  0.00000000E+00
  0.00000000E+00  0.00000000E+00  0.00000000E+00
  0.00000000E+00  0.00000000E+00  0.00000000E+00
  0.00000000E+00  0.00000000E+00  0.00000000E+00
  0.00000000E+00  0.00000000E+00  0.00000000E+00
  0.00000000E+00  0.00000000E+00  0.00000000E+00
  0.00000000E+00  0.00000000E+00  0.00000000E+00
  0.00000000E+00  0.00000000E+00  0.00000000E+00
  0.00000000E+00  0.00000000E+00  0.00000000E+00
  0.00000000E+00  0.00000000E+00  0.00000000E+00
  0.00000000E+00  0.00000000E+00  0.00000000E+00
  0.00000000E+00  0.00000000E+00  0.00000000E+00
  0.00000000E+00  0.00000000E+00  0.00000000E+00
  0.00000000E+00  0.00000000E+00  0.00000000E+00
  0.00000000E+00  0.00000000E+00  0.00000000E+00
  0.00000000E+00  0.00000000E+00  0.00000000E+00
  0.00000000E+00  0.00000000E+00  0.00000000E+00
  0.00000000E+00  0.00000000E+00  0.00000000E+00
  0.00000000E+00  0.00000000E+00  0.00000000E+00
  0.00000000E+00  0.00000000E+00  0.00000000E+00
  0.00000000E+00  0.00000000E+00  0.00000000E+00
  0.00000000E+00  0.00000000E+00  0.00000000E+00
  0.00000000E+00  0.00000000E+00  0.00000000E+00
  0.00000000E+00  0.00000000E+00  0.00000000E+00
