C6 H6                                   
  0.986484830000000     
     7.3550000000000004    0.0000000000000000    0.0000000000000000
     0.0000000000000000    9.3710000000000004    0.0000000000000000
     0.0000000000000000    0.0000000000000000    6.7000000000000002
   C    H 
    24    24
Direct
  0.9434865880747612  0.1445519110005836  0.0030975134436081
  0.0565133929252408  0.8554480889994163 -0.0030974874436060
  0.5565134119252388  0.8554480889994163  0.5030974844436021
  0.4434866180747567  0.1445519110005836  0.4969024865563919
  0.0565133929252408  0.6445519110005837  0.4969024865563919
  0.9434865880747612  0.3554480889994164  0.5030974844436021
  0.4434866180747567  0.3554480889994164 -0.0030974874436060
  0.5565134119252388  0.6445519110005837  0.0030975134436081
  0.0796876729279085  0.0965200092240567  0.1366434866068127
  0.9203123420720893  0.9034799677759451  0.8633564833931848
  0.4203123420720892  0.9034799677759451  0.6366435166068152
  0.5796876579279107  0.0965200092240567  0.3633565133931873
  0.9203123420720893  0.5965200322240549  0.3633565133931873
  0.0796876729279085  0.4034799977759472  0.6366435166068152
  0.5796876579279107  0.4034799977759472  0.8633564833931848
  0.4203123420720892  0.5965200322240549  0.1366434866068127
  0.8634603662919843  0.0478572038032480  0.8663097957403926
  0.1365396337080157  0.9521427741967502  0.1336902042596076
  0.6365396337080157  0.9521427741967502  0.3663097957403925
  0.3634603662919841  0.0478572038032480  0.6336902042596074
  0.1365396337080157  0.5478572258032498  0.6336902042596074
  0.8634603662919843  0.4521428031967490  0.3663097957403925
  0.3634603662919841  0.4521428031967490  0.1336902042596076
  0.6365396337080157  0.5478572258032498  0.8663097957403926
  0.8997329780060642  0.2573829749423858  0.0056890832841946
  0.1002670069939380  0.7426170390576079 -0.0056890542841958
  0.6002670219939358  0.7426170390576079  0.5056890542841954
  0.3997329780060643  0.2573829749423858  0.4943109167158055
  0.1002670069939380  0.7573829609423921  0.4943109167158055
  0.8997329780060642  0.2426170390576083  0.5056890542841954
  0.3997329780060643  0.2426170390576083 -0.0056890542841958
  0.6002670219939358  0.7573829609423921  0.0056890832841946
  0.1416149714888026  0.1712558855946814  0.2443549397551605
  0.8583850145111962  0.8287440994053135  0.7556450452448414
  0.3583850145111961  0.8287440994053134  0.7443549547551586
  0.6416149854888038  0.1712558855946814  0.2556450452448415
  0.8583850145111962  0.6712559005946865  0.2556450452448416
  0.1416149714888026  0.3287440994053140  0.7443549547551586
  0.6416149854888038  0.3287440994053140  0.7556450452448414
  0.3583850145111961  0.6712559005946866  0.2443549397551605
  0.7564952042894231  0.0839381538276958  0.7619978411613720
  0.2435047807105788  0.9160618611723093  0.2380021738386258
  0.7435047957105769  0.9160618611723093  0.2619978411613719
  0.2564952042894232  0.0839381538276958  0.7380021588386280
  0.2435047807105788  0.5839381388276907  0.7380021588386280
  0.7564952042894231  0.4160618611723089  0.2619978411613719
  0.2564952042894232  0.4160618611723089  0.2380021738386258
  0.7435047957105769  0.5839381388276907  0.7619978411613720
 
  0.00000000E+00  0.00000000E+00  0.00000000E+00
  0.00000000E+00  0.00000000E+00  0.00000000E+00
  0.00000000E+00  0.00000000E+00  0.00000000E+00
  0.00000000E+00  0.00000000E+00  0.00000000E+00
  0.00000000E+00  0.00000000E+00  0.00000000E+00
  0.00000000E+00  0.00000000E+00  0.00000000E+00
  0.00000000E+00  0.00000000E+00  0.00000000E+00
  0.00000000E+00  0.00000000E+00  0.00000000E+00
  0.00000000E+00  0.00000000E+00  0.00000000E+00
  0.00000000E+00  0.00000000E+00  0.00000000E+00
  0.00000000E+00  0.00000000E+00  0.00000000E+00
  0.00000000E+00  0.00000000E+00  0.00000000E+00
  0.00000000E+00  0.00000000E+00  0.00000000E+00
  0.00000000E+00  0.00000000E+00  0.00000000E+00
  0.00000000E+00  0.00000000E+00  0.00000000E+00
  0.00000000E+00  0.00000000E+00  0.00000000E+00
  0.00000000E+00  0.00000000E+00  0.00000000E+00
  0.00000000E+00  0.00000000E+00  0.00000000E+00
  0.00000000E+00  0.00000000E+00  0.00000000E+00
  0.00000000E+00  0.00000000E+00  0.00000000E+00
  0.00000000E+00  0.00000000E+00  0.00000000E+00
  0.00000000E+00  0.00000000E+00  0.00000000E+00
  0.00000000E+00  0.00000000E+00  0.00000000E+00
  0.00000000E+00  0.00000000E+00  0.00000000E+00
  0.00000000E+00  0.00000000E+00  0.00000000E+00
  0.00000000E+00  0.00000000E+00  0.00000000E+00
  0.00000000E+00  0.00000000E+00  0.00000000E+00
  0.00000000E+00  0.00000000E+00  0.00000000E+00
  0.00000000E+00  0.00000000E+00  0.00000000E+00
  0.00000000E+00  0.00000000E+00  0.00000000E+00
  0.00000000E+00  0.00000000E+00  0.00000000E+00
  0.00000000E+00  0.00000000E+00  0.00000000E+00
  0.00000000E+00  0.00000000E+00  0.00000000E+00
  0.00000000E+00  0.00000000E+00  0.00000000E+00
  0.00000000E+00  0.00000000E+00  0.00000000E+00
  0.00000000E+00  0.00000000E+00  0.00000000E+00
  0.00000000E+00  0.00000000E+00  0.00000000E+00
  0.00000000E+00  0.00000000E+00  0.00000000E+00
  0.00000000E+00  0.00000000E+00  0.00000000E+00
  0.00000000E+00  0.00000000E+00  0.00000000E+00
  0.00000000E+00  0.00000000E+00  0.00000000E+00
  0.00000000E+00  0.00000000E+00  0.00000000E+00
  0.00000000E+00  0.00000000E+00  0.00000000E+00
  0.00000000E+00  0.00000000E+00  0.00000000E+00
  0.00000000E+00  0.00000000E+00  0.00000000E+00
  0.00000000E+00  0.00000000E+00  0.00000000E+00
  0.00000000E+00  0.00000000E+00  0.00000000E+00
  0.00000000E+00  0.00000000E+00  0.00000000E+00
