CIF file                                
   1.00000000000000     
     2.4671428922114309    0.0000015594825359    0.0000000000000000
    -1.2335700955041018    2.1366091991205063    0.0000000000000000
     0.0000000000000000    0.0000000000000000    6.6761503911886635
   C 
     4
Direct
  0.9999984845232106  0.0000015154767894  0.2500000000000000
  0.0000015154767894  0.9999984845232106  0.7500000000000000
  0.3333315399897856  0.6666684890102132  0.2500000000000000
  0.6666684890102132  0.3333315399897856  0.7500000000000000
 
  0.00000000E+00  0.00000000E+00  0.00000000E+00
  0.00000000E+00  0.00000000E+00  0.00000000E+00
  0.00000000E+00  0.00000000E+00  0.00000000E+00
  0.00000000E+00  0.00000000E+00  0.00000000E+00
