C2 H4                                   
   1.00000000000000     
     4.8699998856000004    0.0000000000000000    0.0000000000000000
     0.0000000000000000    6.4600000380999996    0.0000000000000000
     0.0000000000000000    0.0000000000000000    4.1400000953999996
   C    H 
     4     8
Direct
  0.8870589039139088  0.0539500774536834  0.9644931263593113
  0.1129411110860961  0.9460499075463116  0.0355068476406865
  0.6129410960860912  0.5539500924536884  0.5355068736406887
  0.3870589039139087  0.4460499075463117  0.4644931563593138
  0.8073785995395539  0.1752205071146942  0.1228909264278320
  0.1926213854604412  0.8247795068853070  0.8771090815721688
  0.6926214004604461  0.6752204931146930  0.3771090815721685
  0.3073785995395540  0.3247795068853069  0.6228909184278312
  0.7705096010158440  0.0259979099419485  0.7434280795458909
  0.2294903689841533  0.9740020960580520  0.2565718904541067
  0.7294903989841560  0.5259979039419480  0.7565719204541091
  0.2705096310158467  0.4740020960580519  0.2434281095458933
 
  0.00000000E+00  0.00000000E+00  0.00000000E+00
  0.00000000E+00  0.00000000E+00  0.00000000E+00
  0.00000000E+00  0.00000000E+00  0.00000000E+00
  0.00000000E+00  0.00000000E+00  0.00000000E+00
  0.00000000E+00  0.00000000E+00  0.00000000E+00
  0.00000000E+00  0.00000000E+00  0.00000000E+00
  0.00000000E+00  0.00000000E+00  0.00000000E+00
  0.00000000E+00  0.00000000E+00  0.00000000E+00
  0.00000000E+00  0.00000000E+00  0.00000000E+00
  0.00000000E+00  0.00000000E+00  0.00000000E+00
  0.00000000E+00  0.00000000E+00  0.00000000E+00
  0.00000000E+00  0.00000000E+00  0.00000000E+00
