C2 H4                                   
  0.965489385000000     
     4.8699998856000004    0.0000000000000000    0.0000000000000000
     0.0000000000000000    6.4600000380999996    0.0000000000000000
     0.0000000000000000    0.0000000000000000    4.1400000953999996
   C    H 
     4     8
Direct
  0.8830176055216364  0.0556931465386350  0.9628513679127433
  0.1169824094783684  0.9443068384613603  0.0371486060872547
  0.6169823944783636  0.5556931615386397  0.5371486320872567
  0.3830176055216364  0.4443068384613602  0.4628513979127457
  0.8019262306340035  0.1810031744538169  0.1281638909773795
  0.1980737543659916  0.8189968395461842  0.8718361170226211
  0.6980737693659965  0.6810031604538158  0.3718361170226212
  0.3019262306340036  0.3189968395461841  0.6281638829773789
  0.7630401824611551  0.0263710399919180  0.7341573791673612
  0.2369597875388423  0.9736289660080825  0.2658425908326363
  0.7369598175388449  0.5263710339919175  0.7658426208326387
  0.2630402124611578  0.4736289660080824  0.2341574091673637
 
  0.00000000E+00  0.00000000E+00  0.00000000E+00
  0.00000000E+00  0.00000000E+00  0.00000000E+00
  0.00000000E+00  0.00000000E+00  0.00000000E+00
  0.00000000E+00  0.00000000E+00  0.00000000E+00
  0.00000000E+00  0.00000000E+00  0.00000000E+00
  0.00000000E+00  0.00000000E+00  0.00000000E+00
  0.00000000E+00  0.00000000E+00  0.00000000E+00
  0.00000000E+00  0.00000000E+00  0.00000000E+00
  0.00000000E+00  0.00000000E+00  0.00000000E+00
  0.00000000E+00  0.00000000E+00  0.00000000E+00
  0.00000000E+00  0.00000000E+00  0.00000000E+00
  0.00000000E+00  0.00000000E+00  0.00000000E+00
