C
   1.0
     5.1618708525255865    0.0000000000000000    0.0000000000000000
     2.5809354261641451    4.4703112893602794    0.0000000000000000
     2.5809354261641451    1.4901037630543275    4.2146499021268626
  16
Direct
  0.0019372820990101  0.0000000000000000  0.0000000000000000
  0.5000000000000000  0.0000000000000000  0.0000000000000000
  0.0000000000000000  0.5000000000000000  0.0000000000000000
  0.5000000000000000  0.5000000000000000  0.0000000000000000
  0.0000000000000000  0.0000000000000000  0.5000000000000000
  0.4999999999999999  0.0000000000000000  0.5000000000000000
  0.0000000000000000  0.5000000000000000  0.5000000000000000
  0.4999999999999999  0.5000000000000000  0.5000000000000000
  0.1250000000000000  0.1250000000000000  0.1249999925000000
  0.6250000000000001  0.1250000000000000  0.1249999925000000
  0.1250000000000000  0.6250000000000000  0.1249999925000000
  0.6250000000000003  0.6250000000000000  0.1249999925000000
  0.1250000000000000  0.1250000000000000  0.6249999925000000
  0.6250000000000000  0.1250000000000000  0.6249999925000000
  0.1249999999999999  0.6250000000000000  0.6249999925000000
  0.6250000000000001  0.6250000000000000  0.6249999925000000
