SYSTEM=graphite                 # Job description
NPAR=2                          # (# of CPUs)/(NPAR) node(s) work on one band require NPAR=#CPUs for HF
GGA=PE                          #
ISMEAR=-5                        # Tetrahedron method with Bloechl corrections
NELM=200                        # Maximum number of SCF cycles
EDIFF=1.0E-08                   # Convergence criteria for SCF Energy
ENCUT=800
PREC=Accurate                   # Precision control
IBRION=2                        # CG Geom Opt
ISIF=2                          # Relax all
NSW=200                         # Maximum number of Geom Opt steps
EDIFFG=1.0E-03                  # Convergence criteria for Geom Opt forces
LWAVE=.FALSE.                   # !No wavefunction output file, too big
LCHARG=.FALSE.                  # !No charge density output file, too big
IVDW=12

