C6 H6                                   
   1.00662271000000     
     7.3550000000000004    0.0000000000000000    0.0000000000000000
     0.0000000000000000    9.3710000000000004    0.0000000000000000
     0.0000000000000000    0.0000000000000000    6.7000000000000002
   C    H 
    24    24
Direct
  0.9453502962975476  0.1419006482398339  0.0023269796655682
  0.0546496847024543  0.8580993517601663 -0.0023269536655660
  0.5546497037024524  0.8580993517601663  0.5023269506655622
  0.4453503262975431  0.1419006482398339  0.4976730203344317
  0.0546496847024543  0.6419006482398337  0.4976730203344317
  0.9453502962975476  0.3580993517601659  0.5023269506655622
  0.4453503262975431  0.3580993517601659 -0.0023269536655660
  0.5546497037024524  0.6419006482398337  0.0023269796655682
  0.0780365195733031  0.0946148366094721  0.1341727248972863
  0.9219634954266946  0.9053851403905293  0.8658272451027115
  0.4219634954266946  0.9053851403905293  0.6341727548972886
  0.5780365045733054  0.0946148366094721  0.3658272751027138
  0.9219634954266946  0.5946148596094707  0.3658272751027138
  0.0780365195733031  0.4053851703905320  0.6341727548972886
  0.5780365045733054  0.4053851703905320  0.8658272451027115
  0.4219634954266946  0.5946148596094707  0.1341727248972863
  0.8668225440510259  0.0471305268443959  0.8682396831653580
  0.1331774559489742  0.9528694511556020  0.1317603168346420
  0.6331774559489741  0.9528694511556020  0.3682396831653580
  0.3668225440510259  0.0471305268443959  0.6317603168346420
  0.1331774559489742  0.5471305488443980  0.6317603168346420
  0.8668225440510259  0.4528694801556012  0.3682396831653580
  0.3668225440510259  0.4528694801556012  0.1317603168346421
  0.6331774559489741  0.5471305488443980  0.8682396831653580
  0.9032473770964227  0.2527368324848953  0.0042856241735470
  0.0967526079035795  0.7472631815150986 -0.0042855951735479
  0.5967526229035773  0.7472631815150986  0.5042855951735478
  0.4032473770964228  0.2527368324848953  0.4957143758264530
  0.0967526079035795  0.7527368184849014  0.4957143758264530
  0.9032473770964227  0.2472631815150987  0.5042855951735478
  0.4032473770964228  0.2472631815150987 -0.0042855951735479
  0.5967526229035773  0.7527368184849014  0.0042856241735470
  0.1383474060709440  0.1679293721606368  0.2400415439761142
  0.8616525799290549  0.8320706128393583  0.7599584410238878
  0.3616525799290548  0.8320706128393583  0.7400415589761122
  0.6383474200709451  0.1679293721606367  0.2599584410238882
  0.8616525799290549  0.6679293871606417  0.2599584410238881
  0.1383474060709440  0.3320706128393583  0.7400415589761122
  0.6383474200709451  0.3320706128393583  0.7599584410238878
  0.3616525799290548  0.6679293871606417  0.2400415439761143
  0.7623137321728607  0.0826358553651185  0.7655818386261142
  0.2376862528271418  0.9173641596348863  0.2344181763738837
  0.7376862678271393  0.9173641596348863  0.2655818386261138
  0.2623137321728606  0.0826358553651185  0.7344181613738858
  0.2376862528271418  0.5826358403651137  0.7344181613738858
  0.7623137321728607  0.4173641596348865  0.2655818386261138
  0.2623137321728606  0.4173641596348865  0.2344181763738837
  0.7376862678271393  0.5826358403651137  0.7655818386261142
 
  0.00000000E+00  0.00000000E+00  0.00000000E+00
  0.00000000E+00  0.00000000E+00  0.00000000E+00
  0.00000000E+00  0.00000000E+00  0.00000000E+00
  0.00000000E+00  0.00000000E+00  0.00000000E+00
  0.00000000E+00  0.00000000E+00  0.00000000E+00
  0.00000000E+00  0.00000000E+00  0.00000000E+00
  0.00000000E+00  0.00000000E+00  0.00000000E+00
  0.00000000E+00  0.00000000E+00  0.00000000E+00
  0.00000000E+00  0.00000000E+00  0.00000000E+00
  0.00000000E+00  0.00000000E+00  0.00000000E+00
  0.00000000E+00  0.00000000E+00  0.00000000E+00
  0.00000000E+00  0.00000000E+00  0.00000000E+00
  0.00000000E+00  0.00000000E+00  0.00000000E+00
  0.00000000E+00  0.00000000E+00  0.00000000E+00
  0.00000000E+00  0.00000000E+00  0.00000000E+00
  0.00000000E+00  0.00000000E+00  0.00000000E+00
  0.00000000E+00  0.00000000E+00  0.00000000E+00
  0.00000000E+00  0.00000000E+00  0.00000000E+00
  0.00000000E+00  0.00000000E+00  0.00000000E+00
  0.00000000E+00  0.00000000E+00  0.00000000E+00
  0.00000000E+00  0.00000000E+00  0.00000000E+00
  0.00000000E+00  0.00000000E+00  0.00000000E+00
  0.00000000E+00  0.00000000E+00  0.00000000E+00
  0.00000000E+00  0.00000000E+00  0.00000000E+00
  0.00000000E+00  0.00000000E+00  0.00000000E+00
  0.00000000E+00  0.00000000E+00  0.00000000E+00
  0.00000000E+00  0.00000000E+00  0.00000000E+00
  0.00000000E+00  0.00000000E+00  0.00000000E+00
  0.00000000E+00  0.00000000E+00  0.00000000E+00
  0.00000000E+00  0.00000000E+00  0.00000000E+00
  0.00000000E+00  0.00000000E+00  0.00000000E+00
  0.00000000E+00  0.00000000E+00  0.00000000E+00
  0.00000000E+00  0.00000000E+00  0.00000000E+00
  0.00000000E+00  0.00000000E+00  0.00000000E+00
  0.00000000E+00  0.00000000E+00  0.00000000E+00
  0.00000000E+00  0.00000000E+00  0.00000000E+00
  0.00000000E+00  0.00000000E+00  0.00000000E+00
  0.00000000E+00  0.00000000E+00  0.00000000E+00
  0.00000000E+00  0.00000000E+00  0.00000000E+00
  0.00000000E+00  0.00000000E+00  0.00000000E+00
  0.00000000E+00  0.00000000E+00  0.00000000E+00
  0.00000000E+00  0.00000000E+00  0.00000000E+00
  0.00000000E+00  0.00000000E+00  0.00000000E+00
  0.00000000E+00  0.00000000E+00  0.00000000E+00
  0.00000000E+00  0.00000000E+00  0.00000000E+00
  0.00000000E+00  0.00000000E+00  0.00000000E+00
  0.00000000E+00  0.00000000E+00  0.00000000E+00
  0.00000000E+00  0.00000000E+00  0.00000000E+00
