methane-ref                             
   1.00000000000000     
    10.0000000000000000    0.0000000000000000    0.0000000000000000
     0.0000000000000000   10.0000000000000000    0.0000000000000000
     0.0000000000000000    0.0000000000000000   10.0000000000000000
   H    C 
     4     1
Direct
  0.1900158551180150  0.1313133132666163  0.1912109671837243
  0.1573798642248656  0.1981570771918995  0.0284341187258314
  0.1704240625500630  0.0211758490481533  0.0515202621520321
  0.0289716166032690  0.1096643509816875  0.1162192057135756
  0.1366986035037937  0.1150794045116453  0.0968454502248336
 
  0.00000000E+00  0.00000000E+00  0.00000000E+00
  0.00000000E+00  0.00000000E+00  0.00000000E+00
  0.00000000E+00  0.00000000E+00  0.00000000E+00
  0.00000000E+00  0.00000000E+00  0.00000000E+00
  0.00000000E+00  0.00000000E+00  0.00000000E+00
