benzene                                 
   1.00000000000000     
    20.0000000000000000    0.0000000000000000    0.0000000000000000
     0.0000000000000000   20.0000000000000000    0.0000000000000000
     0.0000000000000000    0.0000000000000000   20.0000000000000000
   C    H 
     6     6
Direct
  0.2042832855630213  0.3011450292050872  0.1665570795077140
  0.1634667184369800  0.1674049827949072  0.1684429144922864
  0.1550237474385897  0.2790162284058468  0.1222088230972967
  0.2127262565614116  0.1895337835941547  0.2127911699027000
  0.2331384001492506  0.2563667445549953  0.2118206835687339
  0.1346116038507506  0.2121832524450084  0.1231793164312670
  0.2200595453491396  0.3533987627985105  0.1658686714681181
  0.1476904436508568  0.1151512492014909  0.1691313225318822
  0.1324991781495785  0.3138375470284337  0.0867863990440812
  0.2352508258504228  0.1547124499715628  0.2482136019559162
  0.2716800533135093  0.2735644932616769  0.2463759151920661
  0.0960699436864950  0.1949855037383198  0.0886240858079313
 
  0.00000000E+00  0.00000000E+00  0.00000000E+00
  0.00000000E+00  0.00000000E+00  0.00000000E+00
  0.00000000E+00  0.00000000E+00  0.00000000E+00
  0.00000000E+00  0.00000000E+00  0.00000000E+00
  0.00000000E+00  0.00000000E+00  0.00000000E+00
  0.00000000E+00  0.00000000E+00  0.00000000E+00
  0.00000000E+00  0.00000000E+00  0.00000000E+00
  0.00000000E+00  0.00000000E+00  0.00000000E+00
  0.00000000E+00  0.00000000E+00  0.00000000E+00
  0.00000000E+00  0.00000000E+00  0.00000000E+00
  0.00000000E+00  0.00000000E+00  0.00000000E+00
  0.00000000E+00  0.00000000E+00  0.00000000E+00
