methane-ref
1.0
       10.0000000000         0.0000000000         0.0000000000
        0.0000000000        10.0000000000         0.0000000000
        0.0000000000         0.0000000000        10.0000000000
    H    C
    4    1
Direct
     0.189579993         0.131180003         0.190439999
     0.157210007         0.197479993         0.028990000
     0.170149997         0.021940000         0.051890001
     0.029850001         0.109710000         0.116060004
     0.136700004         0.115079999         0.096850000
