CIF file                                
   1.00000000000000     
     2.4664372489959372   -0.0009596429814032    0.0000000000000000
    -1.2340496996483061    2.1355174929380345    0.0000000000000000
     0.0000000000000000    0.0000000000000000    7.0959732791159000
   C 
     4
Direct
  0.9992762423680261  0.0007238039715816  0.2500000000000000
  0.0007238039715816  0.9992762423680261  0.7500000000000000
  0.3326374786996240  0.6673625039607671  0.2500000000000000
  0.6673625039607671  0.3326374786996240  0.7500000000000000
 
  0.00000000E+00  0.00000000E+00  0.00000000E+00
  0.00000000E+00  0.00000000E+00  0.00000000E+00
  0.00000000E+00  0.00000000E+00  0.00000000E+00
  0.00000000E+00  0.00000000E+00  0.00000000E+00
