CIF file                                
   1.00000000000000     
     2.4664372489959372   -0.0009596429814032    0.0000000000000000
    -1.2340496996483061    2.1355174929380345    0.0000000000000000
     0.0000000000000000    0.0000000000000000    2.9842878276655700
   C 
     4
Direct
  0.9996198762543772  0.0003801700852305  0.2500000000000000
  0.0003801700852305  0.9996198762543772  0.7500000000000000
  0.3330148591225465  0.6669851235378447  0.2500000000000000
  0.6669851235378447  0.3330148591225465  0.7500000000000000
 
  0.00000000E+00  0.00000000E+00  0.00000000E+00
  0.00000000E+00  0.00000000E+00  0.00000000E+00
  0.00000000E+00  0.00000000E+00  0.00000000E+00
  0.00000000E+00  0.00000000E+00  0.00000000E+00
