C2 H4                                   
  0.993288388000000     
     4.8699998856000004    0.0000000000000000    0.0000000000000000
     0.0000000000000000    6.4600000380999996    0.0000000000000000
     0.0000000000000000    0.0000000000000000    4.1400000953999996
   C    H 
     4     8
Direct
  0.8862368411058834  0.0543313289679388  0.9642192277233822
  0.1137631738941213  0.9456686560320565  0.0357807462766158
  0.6137631588941166  0.5543313439679435  0.5357807722766178
  0.3862368411058836  0.4456686560320564  0.4642192577233845
  0.8063292748834763  0.1763709273767146  0.1240132680662791
  0.1936707101165188  0.8236290866232867  0.8759867399337214
  0.6936707251165237  0.6763709133767133  0.3759867399337216
  0.3063292748834765  0.3236290866232866  0.6240132600662786
  0.7691871783970030  0.0260035230395493  0.7416610987197696
  0.2308127916029946  0.9739964829604512  0.2583388712802279
  0.7308128216029970  0.5260035170395488  0.7583389012802304
  0.2691872083970053  0.4739964829604513  0.2416611287197721
 
  0.00000000E+00  0.00000000E+00  0.00000000E+00
  0.00000000E+00  0.00000000E+00  0.00000000E+00
  0.00000000E+00  0.00000000E+00  0.00000000E+00
  0.00000000E+00  0.00000000E+00  0.00000000E+00
  0.00000000E+00  0.00000000E+00  0.00000000E+00
  0.00000000E+00  0.00000000E+00  0.00000000E+00
  0.00000000E+00  0.00000000E+00  0.00000000E+00
  0.00000000E+00  0.00000000E+00  0.00000000E+00
  0.00000000E+00  0.00000000E+00  0.00000000E+00
  0.00000000E+00  0.00000000E+00  0.00000000E+00
  0.00000000E+00  0.00000000E+00  0.00000000E+00
  0.00000000E+00  0.00000000E+00  0.00000000E+00
