C2 H4                                   
  0.993288388000000     
     4.8699998856000004    0.0000000000000000    0.0000000000000000
     0.0000000000000000    6.4600000380999996    0.0000000000000000
     0.0000000000000000    0.0000000000000000    4.1400000953999996
   C    H 
     4     8
Direct
  0.8862996512794387  0.0542912954269637  0.9642133293511748
  0.1137003637205661  0.9457086895730316  0.0357866446488232
  0.6137003487205613  0.5542913104269684  0.5357866706488252
  0.3862996512794387  0.4457086895730315  0.4642133593511771
  0.8063602087325361  0.1763788989101261  0.1240786552937024
  0.1936397762674588  0.8236211150898749  0.8759213527062986
  0.6936397912674639  0.6763788849101251  0.3759213527062983
  0.3063602087325363  0.3236211150898751  0.6240786472937014
  0.7691226326374673  0.0259873762971752  0.7415255324368085
  0.2308773373625303  0.9740126297028253  0.2584744375631891
  0.7308773673625327  0.5259873702971747  0.7584744675631915
  0.2691226626374697  0.4740126297028253  0.2415255624368110
 
  0.00000000E+00  0.00000000E+00  0.00000000E+00
  0.00000000E+00  0.00000000E+00  0.00000000E+00
  0.00000000E+00  0.00000000E+00  0.00000000E+00
  0.00000000E+00  0.00000000E+00  0.00000000E+00
  0.00000000E+00  0.00000000E+00  0.00000000E+00
  0.00000000E+00  0.00000000E+00  0.00000000E+00
  0.00000000E+00  0.00000000E+00  0.00000000E+00
  0.00000000E+00  0.00000000E+00  0.00000000E+00
  0.00000000E+00  0.00000000E+00  0.00000000E+00
  0.00000000E+00  0.00000000E+00  0.00000000E+00
  0.00000000E+00  0.00000000E+00  0.00000000E+00
  0.00000000E+00  0.00000000E+00  0.00000000E+00
