C2 H4                                   
  0.993288388000000     
     4.8699998856000004    0.0000000000000000    0.0000000000000000
     0.0000000000000000    6.4600000380999996    0.0000000000000000
     0.0000000000000000    0.0000000000000000    4.1400000953999996
   C    H 
     4     8
Direct
  0.8834400180000017  0.0538199989999981  0.9592499729999986
  0.1165599970000031  0.9461799859999971  0.0407500009999993
  0.6165599819999983  0.5538200140000029  0.5407500270000014
  0.3834400180000017  0.4461799859999971  0.4592500030000011
  0.8130999799999969  0.1697999980000020  0.1185000019999976
  0.1869000049999983  0.8302000159999992  0.8815000060000031
  0.6869000200000031  0.6697999840000008  0.3815000060000031
  0.3130999799999969  0.3302000159999992  0.6184999939999969
  0.7569999689999989  0.0287000000000006  0.7310999629999984
  0.2430000009999986  0.9713000059999999  0.2689000069999992
  0.7430000310000011  0.5286999940000001  0.7689000370000016
  0.2569999990000014  0.4713000059999999  0.2310999930000008
 
  0.00000000E+00  0.00000000E+00  0.00000000E+00
  0.00000000E+00  0.00000000E+00  0.00000000E+00
  0.00000000E+00  0.00000000E+00  0.00000000E+00
  0.00000000E+00  0.00000000E+00  0.00000000E+00
  0.00000000E+00  0.00000000E+00  0.00000000E+00
  0.00000000E+00  0.00000000E+00  0.00000000E+00
  0.00000000E+00  0.00000000E+00  0.00000000E+00
  0.00000000E+00  0.00000000E+00  0.00000000E+00
  0.00000000E+00  0.00000000E+00  0.00000000E+00
  0.00000000E+00  0.00000000E+00  0.00000000E+00
  0.00000000E+00  0.00000000E+00  0.00000000E+00
  0.00000000E+00  0.00000000E+00  0.00000000E+00
