methane-low                             
  0.972588826000000     
    11.7079000473000008    0.0000000000000000    0.0000000000000000
     0.0000000000000000    8.1892995834000004    0.0000000000000000
     0.0000000000000000    0.0000000000000000    8.1842002868999995
   H    C 
    64    16
Direct
  0.0787386001471286  0.8189543581714044  0.1665954582837787
  0.9212614218528661  0.1810456418285957  0.8334045707162202
  0.9212614218528661  0.6810456418285956  0.6665954292837798
  0.0787386001471286  0.3189543581714043  0.3334045417162213
  0.9212614218528661  0.3189543581714043  0.3334045417162213
  0.0787386001471286  0.6810456418285956  0.6665954292837798
  0.0787386001471286  0.1810456418285957  0.8334045707162202
  0.9212614218528661  0.8189543581714044  0.1665954582837787
  0.5787385781471339  0.3189543581714043  0.1665954582837787
  0.4212613928528673  0.6810456418285956  0.8334045707162202
  0.4212613928528673  0.1810456418285957  0.6665954292837798
  0.5787385781471339  0.8189543581714044  0.3334045417162213
  0.4212613928528673  0.8189543581714044  0.3334045417162213
  0.5787385781471339  0.1810456418285957  0.6665954292837798
  0.5787385781471339  0.6810456418285956  0.8334045707162202
  0.4212613928528673  0.3189543581714043  0.1665954582837787
  0.8135691588945152  0.5872634131746449  0.9295051181290678
  0.1864308411054848  0.4127365868253551  0.0704948818709322
  0.1864308411054848  0.9127365868253551  0.4295051181290678
  0.8135691588945152  0.0872634131746449  0.5704948818709322
  0.1864308411054848  0.0872634131746449  0.5704948818709322
  0.8135691588945152  0.9127365868253551  0.4295051181290678
  0.8135691588945152  0.4127365868253551  0.0704948818709322
  0.1864308411054848  0.5872634131746449  0.9295051181290678
  0.3135691588945153  0.0872634131746449  0.9295051181290678
  0.6864308411054848  0.9127365868253551  0.0704948818709322
  0.6864308411054848  0.4127365868253551  0.4295051181290678
  0.3135691588945153  0.5872634131746449  0.5704948818709322
  0.6864308411054848  0.5872634131746449  0.5704948818709322
  0.3135691588945153  0.4127365868253551  0.4295051181290678
  0.3135691588945153  0.9127365868253551  0.0704948818709322
  0.6864308411054848  0.0872634131746449  0.9295051181290678
  0.7025067526022942  0.5707684433422058  0.0871471596228883
  0.2974932473977058  0.4292315566577942  0.9128528403771117
  0.2974932473977058  0.9292315566577942  0.5871471596228883
  0.7025067526022942  0.0707684433422057  0.4128528403771117
  0.2974932473977058  0.0707684433422057  0.4128528403771117
  0.7025067526022942  0.9292315566577942  0.5871471596228883
  0.7025067526022942  0.4292315566577942  0.9128528403771117
  0.2974932473977058  0.5707684433422058  0.0871471596228883
  0.2025067526022942  0.0707684433422057  0.0871471596228883
  0.7974932473977058  0.9292315566577942  0.9128528403771117
  0.7974932473977058  0.4292315566577942  0.5871471596228883
  0.2025067526022942  0.5707684433422058  0.4128528403771117
  0.7974932473977058  0.5707684433422058  0.4128528403771117
  0.2025067526022942  0.4292315566577942  0.5871471596228883
  0.2025067526022942  0.9292315566577942  0.9128528403771117
  0.7974932473977058  0.0707684433422057  0.0871471596228883
  0.0000000000000000  0.6258808261131443  0.1423124147689509
  0.0000000000000000  0.3741191738868557  0.8576875552310467
  0.0000000000000000  0.8741191738868557  0.6423124447689533
  0.0000000000000000  0.1258808261131443  0.3576875852310491
  0.5000000000000000  0.1258808261131443  0.1423124147689509
  0.5000000000000000  0.8741191738868557  0.8576875552310467
  0.5000000000000000  0.3741191738868557  0.6423124447689533
  0.5000000000000000  0.6258808261131443  0.3576875852310491
  0.0000000000000000  0.2779409310329745  0.5226779287580815
  0.0000000000000000  0.7220590689670255  0.4773220712419184
  0.0000000000000000  0.2220590689670255  0.0226779287580816
  0.0000000000000000  0.7779409310329745  0.9773220712419185
  0.5000000000000000  0.7779409310329745  0.5226779287580815
  0.5000000000000000  0.2220590689670255  0.4773220712419184
  0.5000000000000000  0.7220590689670255  0.0226779287580816
  0.5000000000000000  0.2779409310329745  0.9773220712419185
  0.0000000000000000  0.2603997851102296  0.3862647366005355
  0.0000000000000000  0.7396002148897705  0.6137352483994668
  0.0000000000000000  0.2396002148897704  0.8862647516005332
  0.0000000000000000  0.7603997851102295  0.1137352483994669
  0.5000000000000000  0.7603997851102295  0.3862647366005355
  0.5000000000000000  0.2396002148897704  0.6137352483994668
  0.5000000000000000  0.7396002148897705  0.8862647516005332
  0.5000000000000000  0.2603997851102296  0.1137352483994669
  0.7580140683643269  0.5000000000000000 -0.0000000000000000
  0.2419859316356731  0.5000000000000000 -0.0000000000000000
  0.2419859316356731  0.0000000000000000  0.5000000000000000
  0.7580140683643269  0.0000000000000000  0.5000000000000000
  0.2580140683643269  0.0000000000000000 -0.0000000000000000
  0.7419859316356731  0.0000000000000000 -0.0000000000000000
  0.7419859316356731  0.5000000000000000  0.5000000000000000
  0.2580140683643269  0.5000000000000000  0.5000000000000000
 
  0.00000000E+00  0.00000000E+00  0.00000000E+00
  0.00000000E+00  0.00000000E+00  0.00000000E+00
  0.00000000E+00  0.00000000E+00  0.00000000E+00
  0.00000000E+00  0.00000000E+00  0.00000000E+00
  0.00000000E+00  0.00000000E+00  0.00000000E+00
  0.00000000E+00  0.00000000E+00  0.00000000E+00
  0.00000000E+00  0.00000000E+00  0.00000000E+00
  0.00000000E+00  0.00000000E+00  0.00000000E+00
  0.00000000E+00  0.00000000E+00  0.00000000E+00
  0.00000000E+00  0.00000000E+00  0.00000000E+00
  0.00000000E+00  0.00000000E+00  0.00000000E+00
  0.00000000E+00  0.00000000E+00  0.00000000E+00
  0.00000000E+00  0.00000000E+00  0.00000000E+00
  0.00000000E+00  0.00000000E+00  0.00000000E+00
  0.00000000E+00  0.00000000E+00  0.00000000E+00
  0.00000000E+00  0.00000000E+00  0.00000000E+00
  0.00000000E+00  0.00000000E+00  0.00000000E+00
  0.00000000E+00  0.00000000E+00  0.00000000E+00
  0.00000000E+00  0.00000000E+00  0.00000000E+00
  0.00000000E+00  0.00000000E+00  0.00000000E+00
  0.00000000E+00  0.00000000E+00  0.00000000E+00
  0.00000000E+00  0.00000000E+00  0.00000000E+00
  0.00000000E+00  0.00000000E+00  0.00000000E+00
  0.00000000E+00  0.00000000E+00  0.00000000E+00
  0.00000000E+00  0.00000000E+00  0.00000000E+00
  0.00000000E+00  0.00000000E+00  0.00000000E+00
  0.00000000E+00  0.00000000E+00  0.00000000E+00
  0.00000000E+00  0.00000000E+00  0.00000000E+00
  0.00000000E+00  0.00000000E+00  0.00000000E+00
  0.00000000E+00  0.00000000E+00  0.00000000E+00
  0.00000000E+00  0.00000000E+00  0.00000000E+00
  0.00000000E+00  0.00000000E+00  0.00000000E+00
  0.00000000E+00  0.00000000E+00  0.00000000E+00
  0.00000000E+00  0.00000000E+00  0.00000000E+00
  0.00000000E+00  0.00000000E+00  0.00000000E+00
  0.00000000E+00  0.00000000E+00  0.00000000E+00
  0.00000000E+00  0.00000000E+00  0.00000000E+00
  0.00000000E+00  0.00000000E+00  0.00000000E+00
  0.00000000E+00  0.00000000E+00  0.00000000E+00
  0.00000000E+00  0.00000000E+00  0.00000000E+00
  0.00000000E+00  0.00000000E+00  0.00000000E+00
  0.00000000E+00  0.00000000E+00  0.00000000E+00
  0.00000000E+00  0.00000000E+00  0.00000000E+00
  0.00000000E+00  0.00000000E+00  0.00000000E+00
  0.00000000E+00  0.00000000E+00  0.00000000E+00
  0.00000000E+00  0.00000000E+00  0.00000000E+00
  0.00000000E+00  0.00000000E+00  0.00000000E+00
  0.00000000E+00  0.00000000E+00  0.00000000E+00
  0.00000000E+00  0.00000000E+00  0.00000000E+00
  0.00000000E+00  0.00000000E+00  0.00000000E+00
  0.00000000E+00  0.00000000E+00  0.00000000E+00
  0.00000000E+00  0.00000000E+00  0.00000000E+00
  0.00000000E+00  0.00000000E+00  0.00000000E+00
  0.00000000E+00  0.00000000E+00  0.00000000E+00
  0.00000000E+00  0.00000000E+00  0.00000000E+00
  0.00000000E+00  0.00000000E+00  0.00000000E+00
  0.00000000E+00  0.00000000E+00  0.00000000E+00
  0.00000000E+00  0.00000000E+00  0.00000000E+00
  0.00000000E+00  0.00000000E+00  0.00000000E+00
  0.00000000E+00  0.00000000E+00  0.00000000E+00
  0.00000000E+00  0.00000000E+00  0.00000000E+00
  0.00000000E+00  0.00000000E+00  0.00000000E+00
  0.00000000E+00  0.00000000E+00  0.00000000E+00
  0.00000000E+00  0.00000000E+00  0.00000000E+00
  0.00000000E+00  0.00000000E+00  0.00000000E+00
  0.00000000E+00  0.00000000E+00  0.00000000E+00
  0.00000000E+00  0.00000000E+00  0.00000000E+00
  0.00000000E+00  0.00000000E+00  0.00000000E+00
  0.00000000E+00  0.00000000E+00  0.00000000E+00
  0.00000000E+00  0.00000000E+00  0.00000000E+00
  0.00000000E+00  0.00000000E+00  0.00000000E+00
  0.00000000E+00  0.00000000E+00  0.00000000E+00
  0.00000000E+00  0.00000000E+00  0.00000000E+00
  0.00000000E+00  0.00000000E+00  0.00000000E+00
  0.00000000E+00  0.00000000E+00  0.00000000E+00
  0.00000000E+00  0.00000000E+00  0.00000000E+00
  0.00000000E+00  0.00000000E+00  0.00000000E+00
  0.00000000E+00  0.00000000E+00  0.00000000E+00
  0.00000000E+00  0.00000000E+00  0.00000000E+00
  0.00000000E+00  0.00000000E+00  0.00000000E+00
