methane-low                             
  0.972588826000000     
    11.7079000473000008    0.0000000000000000    0.0000000000000000
     0.0000000000000000    8.1892995834000004    0.0000000000000000
     0.0000000000000000    0.0000000000000000    8.1842002868999995
   H    C 
    64    16
Direct
  0.0787386001471677  0.8189543581714228  0.1665954582837910
  0.9212614218528270  0.1810456418285771  0.8334045707162078
  0.9212614218528270  0.6810456418285772  0.6665954292837922
  0.0787386001471677  0.3189543581714229  0.3334045417162090
  0.9212614218528270  0.3189543581714229  0.3334045417162090
  0.0787386001471677  0.6810456418285772  0.6665954292837922
  0.0787386001471677  0.1810456418285771  0.8334045707162078
  0.9212614218528270  0.8189543581714228  0.1665954582837910
  0.5787385781471730  0.3189543581714229  0.1665954582837910
  0.4212613928528282  0.6810456418285772  0.8334045707162078
  0.4212613928528282  0.1810456418285771  0.6665954292837922
  0.5787385781471730  0.8189543581714228  0.3334045417162090
  0.4212613928528282  0.8189543581714228  0.3334045417162090
  0.5787385781471730  0.1810456418285771  0.6665954292837922
  0.5787385781471730  0.6810456418285772  0.8334045707162078
  0.4212613928528282  0.3189543581714229  0.1665954582837910
  0.8135691588947765  0.5872634131750815  0.9295051181287167
  0.1864308411052235  0.4127365868249185  0.0704948818712833
  0.1864308411052235  0.9127365868249185  0.4295051181287167
  0.8135691588947765  0.0872634131750815  0.5704948818712833
  0.1864308411052235  0.0872634131750815  0.5704948818712833
  0.8135691588947765  0.9127365868249185  0.4295051181287167
  0.8135691588947765  0.4127365868249185  0.0704948818712833
  0.1864308411052235  0.5872634131750815  0.9295051181287167
  0.3135691588947764  0.0872634131750815  0.9295051181287167
  0.6864308411052235  0.9127365868249185  0.0704948818712833
  0.6864308411052235  0.4127365868249185  0.4295051181287167
  0.3135691588947764  0.5872634131750815  0.5704948818712833
  0.6864308411052235  0.5872634131750815  0.5704948818712833
  0.3135691588947764  0.4127365868249185  0.4295051181287167
  0.3135691588947764  0.9127365868249185  0.0704948818712833
  0.6864308411052235  0.0872634131750815  0.9295051181287167
  0.7025067526020726  0.5707684433424723  0.0871471596232299
  0.2974932473979274  0.4292315566575277  0.9128528403767701
  0.2974932473979274  0.9292315566575277  0.5871471596232299
  0.7025067526020726  0.0707684433424723  0.4128528403767701
  0.2974932473979274  0.0707684433424723  0.4128528403767701
  0.7025067526020726  0.9292315566575277  0.5871471596232299
  0.7025067526020726  0.4292315566575277  0.9128528403767701
  0.2974932473979274  0.5707684433424723  0.0871471596232299
  0.2025067526020727  0.0707684433424723  0.0871471596232299
  0.7974932473979274  0.9292315566575277  0.9128528403767701
  0.7974932473979274  0.4292315566575277  0.5871471596232299
  0.2025067526020727  0.5707684433424723  0.4128528403767701
  0.7974932473979274  0.5707684433424723  0.4128528403767701
  0.2025067526020727  0.4292315566575277  0.5871471596232299
  0.2025067526020727  0.9292315566575277  0.9128528403767701
  0.7974932473979274  0.0707684433424723  0.0871471596232299
 -0.0000000000000000  0.6258808261130550  0.1423124147689366
 -0.0000000000000000  0.3741191738869450  0.8576875552310609
 -0.0000000000000000  0.8741191738869450  0.6423124447689391
 -0.0000000000000000  0.1258808261130550  0.3576875852310635
  0.5000000000000000  0.1258808261130550  0.1423124147689366
  0.5000000000000000  0.8741191738869450  0.8576875552310609
  0.5000000000000000  0.3741191738869450  0.6423124447689391
  0.5000000000000000  0.6258808261130550  0.3576875852310635
 -0.0000000000000000  0.2779409310329700  0.5226779287582127
 -0.0000000000000000  0.7220590689670301  0.4773220712417873
 -0.0000000000000000  0.2220590689670300  0.0226779287582127
 -0.0000000000000000  0.7779409310329699  0.9773220712417873
  0.5000000000000000  0.7779409310329699  0.5226779287582127
  0.5000000000000000  0.2220590689670300  0.4773220712417873
  0.5000000000000000  0.7220590689670301  0.0226779287582127
  0.5000000000000000  0.2779409310329700  0.9773220712417873
 -0.0000000000000000  0.2603997851101036  0.3862647366006389
 -0.0000000000000000  0.7396002148898964  0.6137352483993633
 -0.0000000000000000  0.2396002148898964  0.8862647516006367
 -0.0000000000000000  0.7603997851101036  0.1137352483993634
  0.5000000000000000  0.7603997851101036  0.3862647366006389
  0.5000000000000000  0.2396002148898964  0.6137352483993633
  0.5000000000000000  0.7396002148898964  0.8862647516006367
  0.5000000000000000  0.2603997851101036  0.1137352483993634
  0.7580140683641543  0.5000000000000000 -0.0000000000000000
  0.2419859316358457  0.5000000000000000 -0.0000000000000000
  0.2419859316358457  0.0000000000000000  0.5000000000000000
  0.7580140683641543  0.0000000000000000  0.5000000000000000
  0.2580140683641543  0.0000000000000000 -0.0000000000000000
  0.7419859316358457  0.0000000000000000 -0.0000000000000000
  0.7419859316358457  0.5000000000000000  0.5000000000000000
  0.2580140683641543  0.5000000000000000  0.5000000000000000
 
  0.00000000E+00  0.00000000E+00  0.00000000E+00
  0.00000000E+00  0.00000000E+00  0.00000000E+00
  0.00000000E+00  0.00000000E+00  0.00000000E+00
  0.00000000E+00  0.00000000E+00  0.00000000E+00
  0.00000000E+00  0.00000000E+00  0.00000000E+00
  0.00000000E+00  0.00000000E+00  0.00000000E+00
  0.00000000E+00  0.00000000E+00  0.00000000E+00
  0.00000000E+00  0.00000000E+00  0.00000000E+00
  0.00000000E+00  0.00000000E+00  0.00000000E+00
  0.00000000E+00  0.00000000E+00  0.00000000E+00
  0.00000000E+00  0.00000000E+00  0.00000000E+00
  0.00000000E+00  0.00000000E+00  0.00000000E+00
  0.00000000E+00  0.00000000E+00  0.00000000E+00
  0.00000000E+00  0.00000000E+00  0.00000000E+00
  0.00000000E+00  0.00000000E+00  0.00000000E+00
  0.00000000E+00  0.00000000E+00  0.00000000E+00
  0.00000000E+00  0.00000000E+00  0.00000000E+00
  0.00000000E+00  0.00000000E+00  0.00000000E+00
  0.00000000E+00  0.00000000E+00  0.00000000E+00
  0.00000000E+00  0.00000000E+00  0.00000000E+00
  0.00000000E+00  0.00000000E+00  0.00000000E+00
  0.00000000E+00  0.00000000E+00  0.00000000E+00
  0.00000000E+00  0.00000000E+00  0.00000000E+00
  0.00000000E+00  0.00000000E+00  0.00000000E+00
  0.00000000E+00  0.00000000E+00  0.00000000E+00
  0.00000000E+00  0.00000000E+00  0.00000000E+00
  0.00000000E+00  0.00000000E+00  0.00000000E+00
  0.00000000E+00  0.00000000E+00  0.00000000E+00
  0.00000000E+00  0.00000000E+00  0.00000000E+00
  0.00000000E+00  0.00000000E+00  0.00000000E+00
  0.00000000E+00  0.00000000E+00  0.00000000E+00
  0.00000000E+00  0.00000000E+00  0.00000000E+00
  0.00000000E+00  0.00000000E+00  0.00000000E+00
  0.00000000E+00  0.00000000E+00  0.00000000E+00
  0.00000000E+00  0.00000000E+00  0.00000000E+00
  0.00000000E+00  0.00000000E+00  0.00000000E+00
  0.00000000E+00  0.00000000E+00  0.00000000E+00
  0.00000000E+00  0.00000000E+00  0.00000000E+00
  0.00000000E+00  0.00000000E+00  0.00000000E+00
  0.00000000E+00  0.00000000E+00  0.00000000E+00
  0.00000000E+00  0.00000000E+00  0.00000000E+00
  0.00000000E+00  0.00000000E+00  0.00000000E+00
  0.00000000E+00  0.00000000E+00  0.00000000E+00
  0.00000000E+00  0.00000000E+00  0.00000000E+00
  0.00000000E+00  0.00000000E+00  0.00000000E+00
  0.00000000E+00  0.00000000E+00  0.00000000E+00
  0.00000000E+00  0.00000000E+00  0.00000000E+00
  0.00000000E+00  0.00000000E+00  0.00000000E+00
  0.00000000E+00  0.00000000E+00  0.00000000E+00
  0.00000000E+00  0.00000000E+00  0.00000000E+00
  0.00000000E+00  0.00000000E+00  0.00000000E+00
  0.00000000E+00  0.00000000E+00  0.00000000E+00
  0.00000000E+00  0.00000000E+00  0.00000000E+00
  0.00000000E+00  0.00000000E+00  0.00000000E+00
  0.00000000E+00  0.00000000E+00  0.00000000E+00
  0.00000000E+00  0.00000000E+00  0.00000000E+00
  0.00000000E+00  0.00000000E+00  0.00000000E+00
  0.00000000E+00  0.00000000E+00  0.00000000E+00
  0.00000000E+00  0.00000000E+00  0.00000000E+00
  0.00000000E+00  0.00000000E+00  0.00000000E+00
  0.00000000E+00  0.00000000E+00  0.00000000E+00
  0.00000000E+00  0.00000000E+00  0.00000000E+00
  0.00000000E+00  0.00000000E+00  0.00000000E+00
  0.00000000E+00  0.00000000E+00  0.00000000E+00
  0.00000000E+00  0.00000000E+00  0.00000000E+00
  0.00000000E+00  0.00000000E+00  0.00000000E+00
  0.00000000E+00  0.00000000E+00  0.00000000E+00
  0.00000000E+00  0.00000000E+00  0.00000000E+00
  0.00000000E+00  0.00000000E+00  0.00000000E+00
  0.00000000E+00  0.00000000E+00  0.00000000E+00
  0.00000000E+00  0.00000000E+00  0.00000000E+00
  0.00000000E+00  0.00000000E+00  0.00000000E+00
  0.00000000E+00  0.00000000E+00  0.00000000E+00
  0.00000000E+00  0.00000000E+00  0.00000000E+00
  0.00000000E+00  0.00000000E+00  0.00000000E+00
  0.00000000E+00  0.00000000E+00  0.00000000E+00
  0.00000000E+00  0.00000000E+00  0.00000000E+00
  0.00000000E+00  0.00000000E+00  0.00000000E+00
  0.00000000E+00  0.00000000E+00  0.00000000E+00
  0.00000000E+00  0.00000000E+00  0.00000000E+00
