methane-1                               
  0.972588826000000     
     6.3499999045999997    0.0000000000000000    0.0000000000000000
     0.0000000000000000    6.3499999045999997    0.0000000000000000
     0.0000000000000000    0.0000000000000000    6.3499999045999997
   H    C 
    16     4
Direct
  0.6317930434392850  0.5431739472349855  0.2174248369919463
  0.5697027215128485  0.6882278327294084  0.8482488150889352
  0.5949689400401161  0.3006290479934389  0.9025922660837045
  0.2814904278294129  0.4969927015103379  0.0438234628314718
  0.9503898959768800  0.1442474228480892  0.1744537251394290
  0.9326931378637546  0.0921283189835306  0.7992747365798395
  0.2306583118310730  0.9296916752273860  0.0011058563829608
  0.8700195735204972  0.7964919013204474  0.0584705560099150
  0.1100778755446742  0.5369627906178264  0.7189368361850175
  0.0402761984343784  0.6851291758997949  0.3583211330195095
  0.0598688251710736  0.3054616351324116  0.4086211017768684
  0.7575257278584738  0.4912086566973084  0.5518980845975572
  0.6008587652407824  0.0331370114775937  0.6864874155857491
  0.5426808911248109  0.1772378124233265  0.3288571521117543
  0.5625764915582460  0.8015825090560520  0.3790587403611492
  0.2511584022936119  0.9847142369019086  0.5287248426028081
  0.5150336323844659  0.5031464867860660  0.0016808439009105
  0.0003649430653838  0.9910826253491121  0.0056382138018653
  0.9928111445454531  0.5070634034881260  0.5140605980565526
  0.4891611387647803  0.0007708903228468  0.4774007308920658
 
  0.00000000E+00  0.00000000E+00  0.00000000E+00
  0.00000000E+00  0.00000000E+00  0.00000000E+00
  0.00000000E+00  0.00000000E+00  0.00000000E+00
  0.00000000E+00  0.00000000E+00  0.00000000E+00
  0.00000000E+00  0.00000000E+00  0.00000000E+00
  0.00000000E+00  0.00000000E+00  0.00000000E+00
  0.00000000E+00  0.00000000E+00  0.00000000E+00
  0.00000000E+00  0.00000000E+00  0.00000000E+00
  0.00000000E+00  0.00000000E+00  0.00000000E+00
  0.00000000E+00  0.00000000E+00  0.00000000E+00
  0.00000000E+00  0.00000000E+00  0.00000000E+00
  0.00000000E+00  0.00000000E+00  0.00000000E+00
  0.00000000E+00  0.00000000E+00  0.00000000E+00
  0.00000000E+00  0.00000000E+00  0.00000000E+00
  0.00000000E+00  0.00000000E+00  0.00000000E+00
  0.00000000E+00  0.00000000E+00  0.00000000E+00
  0.00000000E+00  0.00000000E+00  0.00000000E+00
  0.00000000E+00  0.00000000E+00  0.00000000E+00
  0.00000000E+00  0.00000000E+00  0.00000000E+00
  0.00000000E+00  0.00000000E+00  0.00000000E+00
