methane-low                             
  0.972588826000000     
    11.7079000473000008    0.0000000000000000    0.0000000000000000
     0.0000000000000000    8.1892995834000004    0.0000000000000000
     0.0000000000000000    0.0000000000000000    8.1842002868999995
   H    C 
    64    16
Direct
  0.0787394894869563  0.8189536288420655  0.1664908179188128
  0.9212605325130386  0.1810463711579345  0.8335092110811863
  0.9212605325130386  0.6810463711579345  0.6664907889188137
  0.0787394894869563  0.3189536288420655  0.3335091820811871
  0.9212605325130386  0.3189536288420655  0.3335091820811871
  0.0787394894869563  0.6810463711579345  0.6664907889188137
  0.0787394894869563  0.1810463711579346  0.8335092110811863
  0.9212605325130386  0.8189536288420655  0.1664908179188128
  0.5787394674869614  0.3189536288420655  0.1664908179188128
  0.4212605035130395  0.6810463711579345  0.8335092110811863
  0.4212605035130395  0.1810463711579345  0.6664907889188137
  0.5787394674869614  0.8189536288420655  0.3335091820811871
  0.4212605035130395  0.8189536288420655  0.3335091820811871
  0.5787394674869614  0.1810463711579345  0.6664907889188137
  0.5787394674869614  0.6810463711579345  0.8335092110811863
  0.4212605035130395  0.3189536288420655  0.1664908179188128
  0.8135587401448447  0.5872594753382427  0.9295047224538847
  0.1864412598551553  0.4127405246617571  0.0704952775461152
  0.1864412598551552  0.9127405246617573  0.4295047224538850
  0.8135587401448447  0.0872594753382429  0.5704952775461153
  0.1864412598551553  0.0872594753382429  0.5704952775461153
  0.8135587401448447  0.9127405246617573  0.4295047224538850
  0.8135587401448447  0.4127405246617571  0.0704952775461152
  0.1864412598551552  0.5872594753382427  0.9295047224538847
  0.3135587401448446  0.0872594753382429  0.9295047224538846
  0.6864412598551553  0.9127405246617573  0.0704952775461152
  0.6864412598551553  0.4127405246617571  0.4295047224538851
  0.3135587401448446  0.5872594753382427  0.5704952775461153
  0.6864412598551553  0.5872594753382427  0.5704952775461153
  0.3135587401448446  0.4127405246617571  0.4295047224538850
  0.3135587401448446  0.9127405246617573  0.0704952775461152
  0.6864412598551553  0.0872594753382429  0.9295047224538846
  0.7024909854089956  0.5707594929039931  0.0871545688749367
  0.2975090145910047  0.4292405070960068  0.9128454311250636
  0.2975090145910046  0.9292405070960069  0.5871545688749362
  0.7024909854089956  0.0707594929039932  0.4128454311250631
  0.2975090145910046  0.0707594929039932  0.4128454311250631
  0.7024909854089956  0.9292405070960069  0.5871545688749362
  0.7024909854089956  0.4292405070960068  0.9128454311250636
  0.2975090145910047  0.5707594929039931  0.0871545688749367
  0.2024909854089956  0.0707594929039932  0.0871545688749367
  0.7975090145910044  0.9292405070960069  0.9128454311250636
  0.7975090145910044  0.4292405070960069  0.5871545688749362
  0.2024909854089956  0.5707594929039931  0.4128454311250631
  0.7975090145910044  0.5707594929039931  0.4128454311250631
  0.2024909854089956  0.4292405070960069  0.5871545688749362
  0.2024909854089956  0.9292405070960069  0.9128454311250636
  0.7975090145910043  0.0707594929039932  0.0871545688749367
 -0.0000000000000000  0.6259883504778723  0.1422220517105532
 -0.0000000000000000  0.3740116495221277  0.8577779182894442
 -0.0000000000000000  0.8740116495221277  0.6422220817105558
 -0.0000000000000000  0.1259883504778725  0.3577779482894469
  0.5000000000000000  0.1259883504778725  0.1422220517105532
  0.5000000000000000  0.8740116495221277  0.8577779182894442
  0.5000000000000000  0.3740116495221277  0.6422220817105558
  0.5000000000000000  0.6259883504778723  0.3577779482894469
 -0.0000000000000000  0.2779475207294771  0.5228547028363094
 -0.0000000000000000  0.7220524792705233 -0.5228547028363096
 -0.0000000000000000  0.2220524792705229  0.0228547028363095
 -0.0000000000000000 -0.2220524792705229 -0.0228547028363096
  0.5000000000000000 -0.2220524792705229  0.5228547028363094
  0.5000000000000000  0.2220524792705229 -0.5228547028363096
  0.5000000000000000  0.7220524792705233  0.0228547028363096
  0.5000000000000000  0.2779475207294771 -0.0228547028363097
 -0.0000000000000000  0.2603924220920736 -0.6137792804672249
 -0.0000000000000000  0.7396075779079262  0.6137792654672273
 -0.0000000000000000  0.2396075779079264 -0.1137792654672274
 -0.0000000000000000 -0.2396075779079265  0.1137792654672273
  0.5000000000000000 -0.2396075779079265 -0.6137792804672249
  0.5000000000000000  0.2396075779079264  0.6137792654672272
  0.5000000000000000  0.7396075779079262 -0.1137792654672274
  0.5000000000000000  0.2603924220920736  0.1137792654672277
  0.7580086340915964  0.5000000000000000  0.0000000000000000
  0.2419913659084035  0.5000000000000000  0.0000000000000000
  0.2419913659084035 -0.0000000000000000  0.5000000000000000
  0.7580086340915964 -0.0000000000000000  0.5000000000000000
  0.2580086340915966 -0.0000000000000000  0.0000000000000000
  0.7419913659084036 -0.0000000000000000  0.0000000000000000
  0.7419913659084036  0.5000000000000000  0.5000000000000000
  0.2580086340915966  0.5000000000000000  0.5000000000000000
 
  0.00000000E+00  0.00000000E+00  0.00000000E+00
  0.00000000E+00  0.00000000E+00  0.00000000E+00
  0.00000000E+00  0.00000000E+00  0.00000000E+00
  0.00000000E+00  0.00000000E+00  0.00000000E+00
  0.00000000E+00  0.00000000E+00  0.00000000E+00
  0.00000000E+00  0.00000000E+00  0.00000000E+00
  0.00000000E+00  0.00000000E+00  0.00000000E+00
  0.00000000E+00  0.00000000E+00  0.00000000E+00
  0.00000000E+00  0.00000000E+00  0.00000000E+00
  0.00000000E+00  0.00000000E+00  0.00000000E+00
  0.00000000E+00  0.00000000E+00  0.00000000E+00
  0.00000000E+00  0.00000000E+00  0.00000000E+00
  0.00000000E+00  0.00000000E+00  0.00000000E+00
  0.00000000E+00  0.00000000E+00  0.00000000E+00
  0.00000000E+00  0.00000000E+00  0.00000000E+00
  0.00000000E+00  0.00000000E+00  0.00000000E+00
  0.00000000E+00  0.00000000E+00  0.00000000E+00
  0.00000000E+00  0.00000000E+00  0.00000000E+00
  0.00000000E+00  0.00000000E+00  0.00000000E+00
  0.00000000E+00  0.00000000E+00  0.00000000E+00
  0.00000000E+00  0.00000000E+00  0.00000000E+00
  0.00000000E+00  0.00000000E+00  0.00000000E+00
  0.00000000E+00  0.00000000E+00  0.00000000E+00
  0.00000000E+00  0.00000000E+00  0.00000000E+00
  0.00000000E+00  0.00000000E+00  0.00000000E+00
  0.00000000E+00  0.00000000E+00  0.00000000E+00
  0.00000000E+00  0.00000000E+00  0.00000000E+00
  0.00000000E+00  0.00000000E+00  0.00000000E+00
  0.00000000E+00  0.00000000E+00  0.00000000E+00
  0.00000000E+00  0.00000000E+00  0.00000000E+00
  0.00000000E+00  0.00000000E+00  0.00000000E+00
  0.00000000E+00  0.00000000E+00  0.00000000E+00
  0.00000000E+00  0.00000000E+00  0.00000000E+00
  0.00000000E+00  0.00000000E+00  0.00000000E+00
  0.00000000E+00  0.00000000E+00  0.00000000E+00
  0.00000000E+00  0.00000000E+00  0.00000000E+00
  0.00000000E+00  0.00000000E+00  0.00000000E+00
  0.00000000E+00  0.00000000E+00  0.00000000E+00
  0.00000000E+00  0.00000000E+00  0.00000000E+00
  0.00000000E+00  0.00000000E+00  0.00000000E+00
  0.00000000E+00  0.00000000E+00  0.00000000E+00
  0.00000000E+00  0.00000000E+00  0.00000000E+00
  0.00000000E+00  0.00000000E+00  0.00000000E+00
  0.00000000E+00  0.00000000E+00  0.00000000E+00
  0.00000000E+00  0.00000000E+00  0.00000000E+00
  0.00000000E+00  0.00000000E+00  0.00000000E+00
  0.00000000E+00  0.00000000E+00  0.00000000E+00
  0.00000000E+00  0.00000000E+00  0.00000000E+00
  0.00000000E+00  0.00000000E+00  0.00000000E+00
  0.00000000E+00  0.00000000E+00  0.00000000E+00
  0.00000000E+00  0.00000000E+00  0.00000000E+00
  0.00000000E+00  0.00000000E+00  0.00000000E+00
  0.00000000E+00  0.00000000E+00  0.00000000E+00
  0.00000000E+00  0.00000000E+00  0.00000000E+00
  0.00000000E+00  0.00000000E+00  0.00000000E+00
  0.00000000E+00  0.00000000E+00  0.00000000E+00
  0.00000000E+00  0.00000000E+00  0.00000000E+00
  0.00000000E+00  0.00000000E+00  0.00000000E+00
  0.00000000E+00  0.00000000E+00  0.00000000E+00
  0.00000000E+00  0.00000000E+00  0.00000000E+00
  0.00000000E+00  0.00000000E+00  0.00000000E+00
  0.00000000E+00  0.00000000E+00  0.00000000E+00
  0.00000000E+00  0.00000000E+00  0.00000000E+00
  0.00000000E+00  0.00000000E+00  0.00000000E+00
  0.00000000E+00  0.00000000E+00  0.00000000E+00
  0.00000000E+00  0.00000000E+00  0.00000000E+00
  0.00000000E+00  0.00000000E+00  0.00000000E+00
  0.00000000E+00  0.00000000E+00  0.00000000E+00
  0.00000000E+00  0.00000000E+00  0.00000000E+00
  0.00000000E+00  0.00000000E+00  0.00000000E+00
  0.00000000E+00  0.00000000E+00  0.00000000E+00
  0.00000000E+00  0.00000000E+00  0.00000000E+00
  0.00000000E+00  0.00000000E+00  0.00000000E+00
  0.00000000E+00  0.00000000E+00  0.00000000E+00
  0.00000000E+00  0.00000000E+00  0.00000000E+00
  0.00000000E+00  0.00000000E+00  0.00000000E+00
  0.00000000E+00  0.00000000E+00  0.00000000E+00
  0.00000000E+00  0.00000000E+00  0.00000000E+00
  0.00000000E+00  0.00000000E+00  0.00000000E+00
  0.00000000E+00  0.00000000E+00  0.00000000E+00
