methane-1
0.972588826000000     
        6.3499999046         0.0000000000         0.0000000000
        0.0000000000         6.3499999046         0.0000000000
        0.0000000000         0.0000000000         6.3499999046
    H    C
   16    4
Direct
     0.600300014         0.529680014         0.150260001
     0.549319983         0.634090006         0.896009982
     0.569700003         0.357650012         0.932070017
     0.348760009         0.495869994         0.033130001
     0.969340026         0.103410006         0.130610004
     0.954739988         0.058580041         0.855069995
     0.165320039         0.949970007         0.003380000
     0.906449974         0.848930001         0.033530001
     0.075620055         0.532230020         0.660309970
     0.024639964         0.636640012         0.406049997
     0.045019984         0.360199988         0.442119986
     0.824069977         0.498420000         0.543169975
     0.571780026         0.025750041         0.626980007
     0.520799994         0.130159974         0.372729987
     0.541180015         0.853720009         0.408789992
     0.320239991         0.991940022         0.509840012
     0.517030001         0.504329979         0.002870000
     0.998960018         0.990230024         0.005650000
     0.992340028         0.506879985         0.512920022
     0.488499999         0.000399947         0.479589999
