C
   1.0
     4.9328744979918744   -0.0019192859628064    0.0000000000000000
    -2.4680993992966123    4.2710349858760690    0.0000000000000000
     0.0000000000000000    0.0000000000000000   13.3961364708543194
  32
Direct
  0.4996733044495799  0.0003267187202240  0.1250000000000000
  0.9996733044495800  0.0003267187202240  0.1250000000000000
  0.4996733044495797  0.5003267187202239  0.1250000000000000
  0.9996733044495800  0.5003267187202239  0.1250000000000000
  0.4996733044495799  0.0003267187202240  0.6250000000000000
  0.9996733044495800  0.0003267187202240  0.6250000000000000
  0.4996733044495797  0.5003267187202239  0.6250000000000000
  0.9996733044495800  0.5003267187202239  0.6250000000000000
  0.0003267187202240  0.4996733044495797  0.3750000000000001
  0.5003267187202241  0.4996733044495797  0.3750000000000001
  0.0003267187202240  0.9996733044495798  0.3750000000000001
  0.5003267187202241  0.9996733044495798  0.3750000000000001
  0.0003267187202240  0.4996733044495797  0.8750000000000001
  0.5003267187202241  0.4996733044495797  0.8750000000000001
  0.0003267187202240  0.9996733044495798  0.8750000000000001
  0.5003267187202241  0.9996733044495798  0.8750000000000001
  0.1655919613170653  0.3337075288569835  0.1242994988438533
  0.6662924624732121  0.3337075288569835  0.1250000000000000
  0.1662924624732119  0.8337075288569835  0.1250000000000000
  0.6662924624732121  0.8337075288569835  0.1250000000000000
  0.1662924624732120  0.3337075288569835  0.6250000000000000
  0.6662924624732121  0.3337075288569835  0.6250000000000000
  0.1662924624732119  0.8337075288569835  0.6250000000000000
  0.6662924624732121  0.8337075288569835  0.6250000000000000
  0.3337075288569835  0.1662924624732121  0.3750000000000001
  0.8337075288569837  0.1662924624732120  0.3750000000000001
  0.3337075288569835  0.6662924624732119  0.3750000000000001
  0.8337075288569835  0.6662924624732121  0.3750000000000001
  0.3337075288569835  0.1662924624732121  0.8750000000000001
  0.8337075288569837  0.1662924624732120  0.8750000000000001
  0.3337075288569835  0.6662924624732119  0.8750000000000001
  0.8337075288569835  0.6662924624732121  0.8750000000000001
