C H
   1.0
     9.4730149427116768    0.0000000000000000    0.0000000000000000
     0.0000000000000000   12.5658477060312670    0.0000000000000000
     0.0000000000000000    0.0000000000000000    8.0530356648499470
  32   64
Direct
  0.4419593645780732  0.0276933509590541  0.4817020031346794
  0.9419593645780732  0.0276933509590541  0.4817020031346794
  0.4419593645780732  0.5276933509590541  0.4817020031346794
  0.9419593645780732  0.5276933509590541  0.4817020031346794
  0.4419593645780732  0.0276933509590541  0.9817020031346795
  0.9419593645780732  0.0276933509590541  0.9817020031346795
  0.4419593645780732  0.5276933509590541  0.9817020031346795
  0.9419593645780732  0.5276933509590541  0.9817020031346795
  0.0580406429219293  0.4723066415409437  0.0182979838653194
  0.5580406429219295  0.4723066415409437  0.0182979838653194
  0.0580406429219293  0.9723066415409436  0.0182979838653194
  0.5580406429219295  0.9723066415409436  0.0182979838653194
  0.0580406429219293  0.4723066415409437  0.5182979838653194
  0.5580406429219295  0.4723066415409437  0.5182979838653194
  0.0580406429219293  0.9723066415409436  0.5182979838653194
  0.5580406429219295  0.9723066415409436  0.5182979838653194
  0.3080406354219268  0.2776933584590565  0.2682979968653206
  0.8080406354219269  0.2776933584590565  0.2682979968653206
  0.3080406354219268  0.7776933584590564  0.2682979968653206
  0.8080406354219269  0.7776933584590564  0.2682979968653206
  0.3080406354219268  0.2776933584590565  0.7682979968653204
  0.8080406354219269  0.2776933584590565  0.7682979968653204
  0.3080406354219268  0.7776933584590564  0.7682979968653204
  0.8080406354219269  0.7776933584590564  0.7682979968653204
  0.1919593645780732  0.2223066415409435  0.2317020181346807
  0.6919593645780732  0.2223066415409435  0.2317020181346807
  0.1919593645780732  0.7223066415409435  0.2317020181346807
  0.6919593645780732  0.7223066415409435  0.2317020181346807
  0.1919593645780732  0.2223066415409435  0.7317020181346806
  0.6919593645780732  0.2223066415409435  0.7317020181346806
  0.1919593645780732  0.7223066415409435  0.7317020181346806
  0.6919593645780732  0.7223066415409435  0.7317020181346806
  0.4015173814882017  0.0898911532071400  0.0647499883348904
  0.9015173814882018  0.0898911532071400  0.0635082205821847
  0.4015173814882017  0.5898911532071399  0.0635082205821847
  0.9015173814882018  0.5898911532071399  0.0635082205821847
  0.4015173814882017  0.0898911532071400  0.5635082205821846
  0.9015173814882018  0.0898911532071400  0.5635082205821846
  0.4015173814882017  0.5898911532071399  0.5635082205821846
  0.9015173814882018  0.5898911532071399  0.5635082205821846
  0.0984826110117958  0.4101088537928607  0.4364917834178156
  0.5984826110117958  0.4101088537928607  0.4364917834178156
  0.0984826110117958  0.9101088537928608  0.4364917834178156
  0.5984826110117958  0.9101088537928608  0.4364917834178156
  0.0984826110117958  0.4101088537928607  0.9364917834178156
  0.5984826110117958  0.4101088537928607  0.9364917834178156
  0.0984826110117958  0.9101088537928608  0.9364917834178156
  0.5984826110117958  0.9101088537928608  0.9364917834178156
  0.3484826185117983  0.3398911462071393  0.1864917834178156
  0.8484826185117984  0.3398911462071393  0.1864917834178156
  0.3484826185117983  0.8398911462071394  0.1864917834178156
  0.8484826185117984  0.8398911462071394  0.1864917834178156
  0.3484826185117983  0.3398911462071393  0.6864917834178156
  0.8484826185117984  0.3398911462071393  0.6864917834178156
  0.3484826185117983  0.8398911462071394  0.6864917834178156
  0.8484826185117984  0.8398911462071394  0.6864917834178156
  0.1515173814882018  0.1601088537928606  0.3135082165821844
  0.6515173814882018  0.1601088537928606  0.3135082165821844
  0.1515173814882018  0.6601088537928606  0.3135082165821844
  0.6515173814882018  0.6601088537928606  0.3135082165821844
  0.1515173814882018  0.1601088537928606  0.8135082165821843
  0.6515173814882018  0.1601088537928606  0.8135082165821843
  0.1515173814882018  0.6601088537928606  0.8135082165821843
  0.6515173814882018  0.6601088537928606  0.8135082165821843
  0.3823028805561393  0.0131411064337925  0.3680395004264386
  0.8823028805561394  0.0131411064337925  0.3680395004264386
  0.3823028805561393  0.5131411064337925  0.3680395004264386
  0.8823028805561394  0.5131411064337925  0.3680395004264386
  0.3823028805561393  0.0131411064337925  0.8680395004264386
  0.8823028805561394  0.0131411064337925  0.8680395004264386
  0.3823028805561393  0.5131411064337925  0.8680395004264386
  0.8823028805561394  0.5131411064337925  0.8680395004264386
  0.1176971044438595  0.4868588965662078  0.1319604845735601
  0.6176971044438595  0.4868588965662078  0.1319604845735601
  0.1176971044438595  0.9868588965662078  0.1319604845735601
  0.6176971044438595  0.9868588965662078  0.1319604845735601
  0.1176971044438595  0.4868588965662078  0.6319604845735601
  0.6176971044438595  0.4868588965662078  0.6319604845735601
  0.1176971044438595  0.9868588965662078  0.6319604845735601
  0.6176971044438595  0.9868588965662078  0.6319604845735601
  0.3676971194438607  0.2631411034337923  0.3819604995735614
  0.8676971194438609  0.2631411034337923  0.3819604995735614
  0.3676971194438607  0.7631411034337924  0.3819604995735614
  0.8676971194438609  0.7631411034337924  0.3819604995735614
  0.3676971194438607  0.2631411034337923  0.8819604995735613
  0.8676971194438609  0.2631411034337923  0.8819604995735613
  0.3676971194438607  0.7631411034337924  0.8819604995735613
  0.8676971194438609  0.7631411034337924  0.8819604995735613
  0.1323028955561406  0.2368588965662078  0.1180395154264399
  0.6323028955561405  0.2368588965662078  0.1180395154264399
  0.1323028955561406  0.7368588965662077  0.1180395154264399
  0.6323028955561405  0.7368588965662077  0.1180395154264399
  0.1323028955561406  0.2368588965662078  0.6180395154264398
  0.6323028955561405  0.2368588965662078  0.6180395154264398
  0.1323028955561406  0.7368588965662077  0.6180395154264398
  0.6323028955561405  0.7368588965662077  0.6180395154264398
