methane-low                             
  0.965489385000000     
    11.7079000473000008    0.0000000000000000    0.0000000000000000
     0.0000000000000000    8.1892995834000004    0.0000000000000000
     0.0000000000000000    0.0000000000000000    8.1842002868999995
   H    C 
    64    16
Direct
  0.0792583402722635  0.8115322449345195  0.2170790620601815
  0.9207416817277312  0.1884677550654805  0.7829209669398173
  0.9207416817277312  0.6884677550654805  0.7170790330601827
  0.0792583402722635  0.3115322449345195  0.2829209379398185
  0.9207416817277312  0.3115322449345195  0.2829209379398185
  0.0792583402722635  0.6884677550654805  0.7170790330601827
  0.0792583402722635  0.1884677550654805  0.7829209669398173
  0.9207416817277312  0.8115322449345195  0.2170790620601815
  0.5792583182722688  0.3115322449345195  0.2170790620601815
  0.4207416527277323  0.6884677550654805  0.7829209669398173
  0.4207416527277323  0.1884677550654805  0.7170790330601827
  0.5792583182722688  0.8115322449345195  0.2829209379398185
  0.4207416527277323  0.8115322449345195  0.2829209379398185
  0.5792583182722688  0.1884677550654805  0.7170790330601827
  0.5792583182722688  0.6884677550654805  0.7829209669398173
  0.4207416527277323  0.3115322449345195  0.2170790620601815
  0.8118948008344159  0.5855665996115240  0.9264669116760818
  0.1881051991655842  0.4144334003884760  0.0735330883239183
  0.1881051991655842  0.9144334003884760  0.4264669116760817
  0.8118948008344159  0.0855665996115240  0.5735330883239182
  0.1881051991655842  0.0855665996115240  0.5735330883239182
  0.8118948008344159  0.9144334003884760  0.4264669116760817
  0.8118948008344159  0.4144334003884760  0.0735330883239183
  0.1881051991655842  0.5855665996115240  0.9264669116760818
  0.3118948008344158  0.0855665996115240  0.9264669116760818
  0.6881051991655841  0.9144334003884760  0.0735330883239183
  0.6881051991655841  0.4144334003884760  0.4264669116760817
  0.3118948008344158  0.5855665996115240  0.5735330883239182
  0.6881051991655841  0.5855665996115240  0.5735330883239182
  0.3118948008344158  0.4144334003884760  0.4264669116760817
  0.3118948008344158  0.9144334003884760  0.0735330883239183
  0.6881051991655841  0.0855665996115240  0.9264669116760818
  0.6999842288656704  0.5740101896167245  0.0856319400252260
  0.3000157711343296  0.4259898103832756  0.9143680599747740
  0.3000157711343296  0.9259898103832755  0.5856319400252260
  0.6999842288656704  0.0740101896167244  0.4143680599747740
  0.3000157711343296  0.0740101896167244  0.4143680599747740
  0.6999842288656704  0.9259898103832755  0.5856319400252260
  0.6999842288656704  0.4259898103832756  0.9143680599747740
  0.3000157711343296  0.5740101896167245  0.0856319400252260
  0.1999842288656704  0.0740101896167244  0.0856319400252260
  0.8000157711343296  0.9259898103832755  0.9143680599747740
  0.8000157711343296  0.4259898103832756  0.5856319400252260
  0.1999842288656704  0.5740101896167245  0.4143680599747740
  0.8000157711343296  0.5740101896167245  0.4143680599747740
  0.1999842288656704  0.4259898103832756  0.5856319400252260
  0.1999842288656704  0.9259898103832755  0.9143680599747740
  0.8000157711343296  0.0740101896167244  0.0856319400252260
  0.0000000000000000  0.6181736688819807  0.1841883733411072
  0.0000000000000000  0.3818263311180193  0.8158115966588904
  0.0000000000000000  0.8818263311180193  0.6841884033411096
  0.0000000000000000  0.1181736688819807  0.3158116266588929
  0.5000000000000000  0.1181736688819807  0.1841883733411072
  0.5000000000000000  0.8818263311180193  0.8158115966588904
  0.5000000000000000  0.3818263311180193  0.6841884033411096
  0.5000000000000000  0.6181736688819807  0.3158116266588929
  0.0000000000000000  0.2787771798141079  0.4751197244557446
  0.0000000000000000  0.7212228201858921  0.5248802755442553
  0.0000000000000000  0.2212228201858921  0.9751197244557447
  0.0000000000000000  0.7787771798141079  0.0248802755442554
  0.5000000000000000  0.7787771798141079  0.4751197244557446
  0.5000000000000000  0.2212228201858921  0.5248802755442553
  0.5000000000000000  0.7212228201858921  0.9751197244557447
  0.5000000000000000  0.2787771798141079  0.0248802755442554
  0.0000000000000000  0.2548152679583603  0.3387430267648300
  0.0000000000000000  0.7451847320416397  0.6612569582351723
  0.0000000000000000  0.2451847320416396  0.8387430417648277
  0.0000000000000000  0.7548152679583603  0.1612569582351723
  0.5000000000000000  0.7548152679583603  0.3387430267648300
  0.5000000000000000  0.2451847320416396  0.6612569582351723
  0.5000000000000000  0.7451847320416397  0.8387430417648277
  0.5000000000000000  0.2548152679583603  0.1612569582351723
  0.7557926228479682  0.5000000000000000 -0.0000000000000000
  0.2442073771520319  0.5000000000000000 -0.0000000000000000
  0.2442073771520319 -0.0000000000000000  0.5000000000000000
  0.7557926228479682 -0.0000000000000000  0.5000000000000000
  0.2557926228479681 -0.0000000000000000  0.0000000000000000
  0.7442073771520318 -0.0000000000000000 -0.0000000000000000
  0.7442073771520318  0.5000000000000000  0.5000000000000000
  0.2557926228479681  0.5000000000000000  0.5000000000000000
 
  0.00000000E+00  0.00000000E+00  0.00000000E+00
  0.00000000E+00  0.00000000E+00  0.00000000E+00
  0.00000000E+00  0.00000000E+00  0.00000000E+00
  0.00000000E+00  0.00000000E+00  0.00000000E+00
  0.00000000E+00  0.00000000E+00  0.00000000E+00
  0.00000000E+00  0.00000000E+00  0.00000000E+00
  0.00000000E+00  0.00000000E+00  0.00000000E+00
  0.00000000E+00  0.00000000E+00  0.00000000E+00
  0.00000000E+00  0.00000000E+00  0.00000000E+00
  0.00000000E+00  0.00000000E+00  0.00000000E+00
  0.00000000E+00  0.00000000E+00  0.00000000E+00
  0.00000000E+00  0.00000000E+00  0.00000000E+00
  0.00000000E+00  0.00000000E+00  0.00000000E+00
  0.00000000E+00  0.00000000E+00  0.00000000E+00
  0.00000000E+00  0.00000000E+00  0.00000000E+00
  0.00000000E+00  0.00000000E+00  0.00000000E+00
  0.00000000E+00  0.00000000E+00  0.00000000E+00
  0.00000000E+00  0.00000000E+00  0.00000000E+00
  0.00000000E+00  0.00000000E+00  0.00000000E+00
  0.00000000E+00  0.00000000E+00  0.00000000E+00
  0.00000000E+00  0.00000000E+00  0.00000000E+00
  0.00000000E+00  0.00000000E+00  0.00000000E+00
  0.00000000E+00  0.00000000E+00  0.00000000E+00
  0.00000000E+00  0.00000000E+00  0.00000000E+00
  0.00000000E+00  0.00000000E+00  0.00000000E+00
  0.00000000E+00  0.00000000E+00  0.00000000E+00
  0.00000000E+00  0.00000000E+00  0.00000000E+00
  0.00000000E+00  0.00000000E+00  0.00000000E+00
  0.00000000E+00  0.00000000E+00  0.00000000E+00
  0.00000000E+00  0.00000000E+00  0.00000000E+00
  0.00000000E+00  0.00000000E+00  0.00000000E+00
  0.00000000E+00  0.00000000E+00  0.00000000E+00
  0.00000000E+00  0.00000000E+00  0.00000000E+00
  0.00000000E+00  0.00000000E+00  0.00000000E+00
  0.00000000E+00  0.00000000E+00  0.00000000E+00
  0.00000000E+00  0.00000000E+00  0.00000000E+00
  0.00000000E+00  0.00000000E+00  0.00000000E+00
  0.00000000E+00  0.00000000E+00  0.00000000E+00
  0.00000000E+00  0.00000000E+00  0.00000000E+00
  0.00000000E+00  0.00000000E+00  0.00000000E+00
  0.00000000E+00  0.00000000E+00  0.00000000E+00
  0.00000000E+00  0.00000000E+00  0.00000000E+00
  0.00000000E+00  0.00000000E+00  0.00000000E+00
  0.00000000E+00  0.00000000E+00  0.00000000E+00
  0.00000000E+00  0.00000000E+00  0.00000000E+00
  0.00000000E+00  0.00000000E+00  0.00000000E+00
  0.00000000E+00  0.00000000E+00  0.00000000E+00
  0.00000000E+00  0.00000000E+00  0.00000000E+00
  0.00000000E+00  0.00000000E+00  0.00000000E+00
  0.00000000E+00  0.00000000E+00  0.00000000E+00
  0.00000000E+00  0.00000000E+00  0.00000000E+00
  0.00000000E+00  0.00000000E+00  0.00000000E+00
  0.00000000E+00  0.00000000E+00  0.00000000E+00
  0.00000000E+00  0.00000000E+00  0.00000000E+00
  0.00000000E+00  0.00000000E+00  0.00000000E+00
  0.00000000E+00  0.00000000E+00  0.00000000E+00
  0.00000000E+00  0.00000000E+00  0.00000000E+00
  0.00000000E+00  0.00000000E+00  0.00000000E+00
  0.00000000E+00  0.00000000E+00  0.00000000E+00
  0.00000000E+00  0.00000000E+00  0.00000000E+00
  0.00000000E+00  0.00000000E+00  0.00000000E+00
  0.00000000E+00  0.00000000E+00  0.00000000E+00
  0.00000000E+00  0.00000000E+00  0.00000000E+00
  0.00000000E+00  0.00000000E+00  0.00000000E+00
  0.00000000E+00  0.00000000E+00  0.00000000E+00
  0.00000000E+00  0.00000000E+00  0.00000000E+00
  0.00000000E+00  0.00000000E+00  0.00000000E+00
  0.00000000E+00  0.00000000E+00  0.00000000E+00
  0.00000000E+00  0.00000000E+00  0.00000000E+00
  0.00000000E+00  0.00000000E+00  0.00000000E+00
  0.00000000E+00  0.00000000E+00  0.00000000E+00
  0.00000000E+00  0.00000000E+00  0.00000000E+00
  0.00000000E+00  0.00000000E+00  0.00000000E+00
  0.00000000E+00  0.00000000E+00  0.00000000E+00
  0.00000000E+00  0.00000000E+00  0.00000000E+00
  0.00000000E+00  0.00000000E+00  0.00000000E+00
  0.00000000E+00  0.00000000E+00  0.00000000E+00
  0.00000000E+00  0.00000000E+00  0.00000000E+00
  0.00000000E+00  0.00000000E+00  0.00000000E+00
  0.00000000E+00  0.00000000E+00  0.00000000E+00
