methane-1                               
  0.965489385000000     
     6.3499999045999997    0.0000000000000000    0.0000000000000000
     0.0000000000000000    6.3499999045999997    0.0000000000000000
     0.0000000000000000    0.0000000000000000    6.3499999045999997
   H    C 
    16     4
Direct
  0.6341357964202801  0.5443441503676291  0.2227222410995663
  0.5710467027384523  0.6925141260430575  0.8447501522556460
  0.5966157954288589  0.2958661306234999  0.9002874967256351
  0.2759648076025843  0.4969610655577323  0.0442275214204499
  0.9493440761433273  0.1482169713847861  0.1787110755678694
  0.9309298253401572  0.0941497106523927  0.7947043533923844
  0.2356871832582852  0.9283867524020785  0.0008110827286106
  0.8673408896631122  0.7923448081478778  0.0600551313704941
  0.1127132552630177  0.5372681084077422  0.7238900090403759
  0.0413437980088524  0.6890826295020516  0.3546813755308190
  0.0610786022995351  0.3004873046062300  0.4054876687326829
  0.7525982962614456  0.4910932684490513  0.5527663567321409
  0.6035531125022097  0.0339575132941860  0.6914318823018180
  0.5442730418894617  0.1810289098498665  0.3256846000580731
  0.5641922698098293  0.7970899471133924  0.3766136219465778
  0.2459651916916996  0.9842634147557361  0.5297894628160534
  0.5149083748482026  0.5030829503922012  0.0015374895309169
  0.0006262407182376  0.9909614210621228  0.0055684321912454
  0.9927002473619765  0.5071712525921763  0.5141566857999136
  0.4890925807504759  0.0008096467961870  0.4772033087587370
 
  0.00000000E+00  0.00000000E+00  0.00000000E+00
  0.00000000E+00  0.00000000E+00  0.00000000E+00
  0.00000000E+00  0.00000000E+00  0.00000000E+00
  0.00000000E+00  0.00000000E+00  0.00000000E+00
  0.00000000E+00  0.00000000E+00  0.00000000E+00
  0.00000000E+00  0.00000000E+00  0.00000000E+00
  0.00000000E+00  0.00000000E+00  0.00000000E+00
  0.00000000E+00  0.00000000E+00  0.00000000E+00
  0.00000000E+00  0.00000000E+00  0.00000000E+00
  0.00000000E+00  0.00000000E+00  0.00000000E+00
  0.00000000E+00  0.00000000E+00  0.00000000E+00
  0.00000000E+00  0.00000000E+00  0.00000000E+00
  0.00000000E+00  0.00000000E+00  0.00000000E+00
  0.00000000E+00  0.00000000E+00  0.00000000E+00
  0.00000000E+00  0.00000000E+00  0.00000000E+00
  0.00000000E+00  0.00000000E+00  0.00000000E+00
  0.00000000E+00  0.00000000E+00  0.00000000E+00
  0.00000000E+00  0.00000000E+00  0.00000000E+00
  0.00000000E+00  0.00000000E+00  0.00000000E+00
  0.00000000E+00  0.00000000E+00  0.00000000E+00
