methane-low                             
  0.965489385000000     
    11.7079000473000008    0.0000000000000000    0.0000000000000000
     0.0000000000000000    8.1892995834000004    0.0000000000000000
     0.0000000000000000    0.0000000000000000    8.1842002868999995
   H    C 
    64    16
Direct
  0.0792743646958794  0.8116023709671430  0.2170124338220558
  0.9207256573041153  0.1883976290328566  0.7829875951779427
  0.9207256573041153  0.6883976290328570  0.7170124048220573
  0.0792743646958794  0.3116023709671432  0.2829875661779442
  0.9207256573041154  0.3116023709671432  0.2829875661779442
  0.0792743646958794  0.6883976290328570  0.7170124048220573
  0.0792743646958794  0.1883976290328566  0.7829875951779427
  0.9207256573041153  0.8116023709671430  0.2170124338220558
  0.5792743426958847  0.3116023709671432  0.2170124338220558
  0.4207256283041167  0.6883976290328570  0.7829875951779427
  0.4207256283041167  0.1883976290328566  0.7170124048220573
  0.5792743426958845  0.8116023709671430  0.2829875661779441
  0.4207256283041167  0.8116023709671430  0.2829875661779442
  0.5792743426958847  0.1883976290328566  0.7170124048220573
  0.5792743426958847  0.6883976290328570  0.7829875951779427
  0.4207256283041166  0.3116023709671432  0.2170124338220557
  0.8119253483102933  0.5855198734990454  0.9264541489676003
  0.1880746516897066  0.4144801265009543  0.0735458510323999
  0.1880746516897066  0.9144801265009546  0.4264541489676004
  0.8119253483102933  0.0855198734990456  0.5735458510323997
  0.1880746516897066  0.0855198734990456  0.5735458510323997
  0.8119253483102933  0.9144801265009546  0.4264541489676004
  0.8119253483102933  0.4144801265009543  0.0735458510323999
  0.1880746516897066  0.5855198734990454  0.9264541489676003
  0.3119253483102934  0.0855198734990456  0.9264541489676003
  0.6880746516897067  0.9144801265009546  0.0735458510323999
  0.6880746516897067  0.4144801265009543  0.4264541489676004
  0.3119253483102934  0.5855198734990454  0.5735458510323997
  0.6880746516897067  0.5855198734990454  0.5735458510323997
  0.3119253483102934  0.4144801265009543  0.4264541489676004
  0.3119253483102934  0.9144801265009546  0.0735458510323999
  0.6880746516897067  0.0855198734990456  0.9264541489676003
  0.7000056334424329  0.5740393394209640  0.0856166666755254
  0.2999943665575677  0.4259606605790358  0.9143833333244743
  0.2999943665575676  0.9259606605790360  0.5856166666755257
  0.7000056334424329  0.0740393394209642  0.4143833333244745
  0.2999943665575677  0.0740393394209642  0.4143833333244745
  0.7000056334424329  0.9259606605790360  0.5856166666755257
  0.7000056334424329  0.4259606605790358  0.9143833333244743
  0.2999943665575677  0.5740393394209640  0.0856166666755254
  0.2000056334424324  0.0740393394209642  0.0856166666755254
  0.7999943665575668  0.9259606605790360  0.9143833333244743
  0.7999943665575671  0.4259606605790358  0.5856166666755257
  0.2000056334424324  0.5740393394209640  0.4143833333244745
  0.7999943665575671  0.5740393394209640  0.4143833333244745
  0.2000056334424324  0.4259606605790358  0.5856166666755257
  0.2000056334424324  0.9259606605790360  0.9143833333244743
  0.7999943665575671  0.0740393394209642  0.0856166666755254
  0.0000000000000000  0.6181477920620345  0.1841375214026477
  0.0000000000000000  0.3818522079379654  0.8158624485973499
  0.0000000000000000  0.8818522079379654  0.6841375514026501
  0.0000000000000000  0.1181477920620345  0.3158624785973527
  0.5000000000000000  0.1181477920620345  0.1841375214026477
  0.5000000000000000  0.8818522079379655  0.8158624485973499
  0.5000000000000000  0.3818522079379654  0.6841375514026501
  0.5000000000000000  0.6181477920620346  0.3158624785973527
  0.0000000000000000  0.2788328705510622  0.4750237248008917
  0.0000000000000000  0.7211671294489380 -0.4750237248008918
  0.0000000000000000  0.2211671294489381 -0.0249762751991081
  0.0000000000000000 -0.2211671294489380  0.0249762751991079
  0.5000000000000000 -0.2211671294489380  0.4750237248008918
  0.5000000000000000  0.2211671294489381 -0.4750237248008918
  0.5000000000000000  0.7211671294489381 -0.0249762751991079
  0.5000000000000000  0.2788328705510622  0.0249762751991079
  0.0000000000000000  0.2548466728770434 -0.6613112359109919
  0.0000000000000000  0.7451533271229568  0.6613112209109943
  0.0000000000000000  0.2451533271229570 -0.1613112209109944
  0.0000000000000000 -0.2451533271229567  0.1613112209109945
  0.5000000000000000 -0.2451533271229567 -0.6613112359109919
  0.5000000000000000  0.2451533271229568  0.6613112209109945
  0.5000000000000000  0.7451533271229569 -0.1613112209109943
  0.5000000000000000  0.2548466728770433  0.1613112209109945
  0.7558063408241250  0.5000000000000000 -0.0000000000000000
  0.2441936591758749  0.5000000000000000 -0.0000000000000000
  0.2441936591758749 -0.0000000000000000  0.5000000000000000
  0.7558063408241250 -0.0000000000000000  0.5000000000000000
  0.2558063408241251 -0.0000000000000000 -0.0000000000000000
  0.7441936591758750 -0.0000000000000000 -0.0000000000000000
  0.7441936591758750  0.5000000000000000  0.5000000000000000
  0.2558063408241251  0.5000000000000000  0.5000000000000000
 
  0.00000000E+00  0.00000000E+00  0.00000000E+00
  0.00000000E+00  0.00000000E+00  0.00000000E+00
  0.00000000E+00  0.00000000E+00  0.00000000E+00
  0.00000000E+00  0.00000000E+00  0.00000000E+00
  0.00000000E+00  0.00000000E+00  0.00000000E+00
  0.00000000E+00  0.00000000E+00  0.00000000E+00
  0.00000000E+00  0.00000000E+00  0.00000000E+00
  0.00000000E+00  0.00000000E+00  0.00000000E+00
  0.00000000E+00  0.00000000E+00  0.00000000E+00
  0.00000000E+00  0.00000000E+00  0.00000000E+00
  0.00000000E+00  0.00000000E+00  0.00000000E+00
  0.00000000E+00  0.00000000E+00  0.00000000E+00
  0.00000000E+00  0.00000000E+00  0.00000000E+00
  0.00000000E+00  0.00000000E+00  0.00000000E+00
  0.00000000E+00  0.00000000E+00  0.00000000E+00
  0.00000000E+00  0.00000000E+00  0.00000000E+00
  0.00000000E+00  0.00000000E+00  0.00000000E+00
  0.00000000E+00  0.00000000E+00  0.00000000E+00
  0.00000000E+00  0.00000000E+00  0.00000000E+00
  0.00000000E+00  0.00000000E+00  0.00000000E+00
  0.00000000E+00  0.00000000E+00  0.00000000E+00
  0.00000000E+00  0.00000000E+00  0.00000000E+00
  0.00000000E+00  0.00000000E+00  0.00000000E+00
  0.00000000E+00  0.00000000E+00  0.00000000E+00
  0.00000000E+00  0.00000000E+00  0.00000000E+00
  0.00000000E+00  0.00000000E+00  0.00000000E+00
  0.00000000E+00  0.00000000E+00  0.00000000E+00
  0.00000000E+00  0.00000000E+00  0.00000000E+00
  0.00000000E+00  0.00000000E+00  0.00000000E+00
  0.00000000E+00  0.00000000E+00  0.00000000E+00
  0.00000000E+00  0.00000000E+00  0.00000000E+00
  0.00000000E+00  0.00000000E+00  0.00000000E+00
  0.00000000E+00  0.00000000E+00  0.00000000E+00
  0.00000000E+00  0.00000000E+00  0.00000000E+00
  0.00000000E+00  0.00000000E+00  0.00000000E+00
  0.00000000E+00  0.00000000E+00  0.00000000E+00
  0.00000000E+00  0.00000000E+00  0.00000000E+00
  0.00000000E+00  0.00000000E+00  0.00000000E+00
  0.00000000E+00  0.00000000E+00  0.00000000E+00
  0.00000000E+00  0.00000000E+00  0.00000000E+00
  0.00000000E+00  0.00000000E+00  0.00000000E+00
  0.00000000E+00  0.00000000E+00  0.00000000E+00
  0.00000000E+00  0.00000000E+00  0.00000000E+00
  0.00000000E+00  0.00000000E+00  0.00000000E+00
  0.00000000E+00  0.00000000E+00  0.00000000E+00
  0.00000000E+00  0.00000000E+00  0.00000000E+00
  0.00000000E+00  0.00000000E+00  0.00000000E+00
  0.00000000E+00  0.00000000E+00  0.00000000E+00
  0.00000000E+00  0.00000000E+00  0.00000000E+00
  0.00000000E+00  0.00000000E+00  0.00000000E+00
  0.00000000E+00  0.00000000E+00  0.00000000E+00
  0.00000000E+00  0.00000000E+00  0.00000000E+00
  0.00000000E+00  0.00000000E+00  0.00000000E+00
  0.00000000E+00  0.00000000E+00  0.00000000E+00
  0.00000000E+00  0.00000000E+00  0.00000000E+00
  0.00000000E+00  0.00000000E+00  0.00000000E+00
  0.00000000E+00  0.00000000E+00  0.00000000E+00
  0.00000000E+00  0.00000000E+00  0.00000000E+00
  0.00000000E+00  0.00000000E+00  0.00000000E+00
  0.00000000E+00  0.00000000E+00  0.00000000E+00
  0.00000000E+00  0.00000000E+00  0.00000000E+00
  0.00000000E+00  0.00000000E+00  0.00000000E+00
  0.00000000E+00  0.00000000E+00  0.00000000E+00
  0.00000000E+00  0.00000000E+00  0.00000000E+00
  0.00000000E+00  0.00000000E+00  0.00000000E+00
  0.00000000E+00  0.00000000E+00  0.00000000E+00
  0.00000000E+00  0.00000000E+00  0.00000000E+00
  0.00000000E+00  0.00000000E+00  0.00000000E+00
  0.00000000E+00  0.00000000E+00  0.00000000E+00
  0.00000000E+00  0.00000000E+00  0.00000000E+00
  0.00000000E+00  0.00000000E+00  0.00000000E+00
  0.00000000E+00  0.00000000E+00  0.00000000E+00
  0.00000000E+00  0.00000000E+00  0.00000000E+00
  0.00000000E+00  0.00000000E+00  0.00000000E+00
  0.00000000E+00  0.00000000E+00  0.00000000E+00
  0.00000000E+00  0.00000000E+00  0.00000000E+00
  0.00000000E+00  0.00000000E+00  0.00000000E+00
  0.00000000E+00  0.00000000E+00  0.00000000E+00
  0.00000000E+00  0.00000000E+00  0.00000000E+00
  0.00000000E+00  0.00000000E+00  0.00000000E+00
