cubic diamond    comment line
0.965489385
        2.6162950993         0.0000000000         0.0000000000
        1.3081475496         2.2657780198         0.0000000000
        1.3081475496         0.7552593399         2.1361960032
    C
    2
Direct
     0.000000000         0.000000000         0.000000000
     0.250000000         0.250000000         0.249999985
