methane-low                             
  0.965489385000000     
    11.7079000473000008    0.0000000000000000    0.0000000000000000
     0.0000000000000000    8.1892995834000004    0.0000000000000000
     0.0000000000000000    0.0000000000000000    8.1842002868999995
   H    C 
    64    16
Direct
  0.0792790648753916  0.8115877116267797  0.2170467136470201
  0.9207209571246030  0.1884122883732203  0.7829533153529787
  0.9207209571246030  0.6884122883732203  0.7170466846470213
  0.0792790648753916  0.3115877116267797  0.2829532863529799
  0.9207209571246030  0.3115877116267797  0.2829532863529799
  0.0792790648753916  0.6884122883732203  0.7170466846470213
  0.0792790648753916  0.1884122883732203  0.7829533153529787
  0.9207209571246030  0.8115877116267797  0.2170467136470201
  0.5792790428753970  0.3115877116267797  0.2170467136470201
  0.4207209281246043  0.6884122883732203  0.7829533153529787
  0.4207209281246043  0.1884122883732203  0.7170466846470213
  0.5792790428753970  0.8115877116267797  0.2829532863529799
  0.4207209281246043  0.8115877116267797  0.2829532863529799
  0.5792790428753970  0.1884122883732203  0.7170466846470213
  0.5792790428753970  0.6884122883732203  0.7829533153529787
  0.4207209281246043  0.3115877116267797  0.2170467136470201
  0.8119161377252896  0.5855394724972217  0.9264560225451027
  0.1880838622747104  0.4144605275027783  0.0735439774548973
  0.1880838622747104  0.9144605275027783  0.4264560225451028
  0.8119161377252896  0.0855394724972217  0.5735439774548973
  0.1880838622747104  0.0855394724972217  0.5735439774548973
  0.8119161377252896  0.9144605275027783  0.4264560225451028
  0.8119161377252896  0.4144605275027783  0.0735439774548973
  0.1880838622747104  0.5855394724972217  0.9264560225451027
  0.3119161377252896  0.0855394724972217  0.9264560225451027
  0.6880838622747104  0.9144605275027783  0.0735439774548973
  0.6880838622747104  0.4144605275027783  0.4264560225451028
  0.3119161377252896  0.5855394724972217  0.5735439774548973
  0.6880838622747104  0.5855394724972217  0.5735439774548973
  0.3119161377252896  0.4144605275027783  0.4264560225451028
  0.3119161377252896  0.9144605275027783  0.0735439774548973
  0.6880838622747104  0.0855394724972217  0.9264560225451027
  0.6999992468950813  0.5740270675955104  0.0856197452720667
  0.3000007531049187  0.4259729324044897  0.9143802547279334
  0.3000007531049187  0.9259729324044896  0.5856197452720666
  0.6999992468950813  0.0740270675955103  0.4143802547279333
  0.3000007531049187  0.0740270675955103  0.4143802547279333
  0.6999992468950813  0.9259729324044896  0.5856197452720666
  0.6999992468950813  0.4259729324044897  0.9143802547279334
  0.3000007531049187  0.5740270675955104  0.0856197452720667
  0.1999992468950813  0.0740270675955103  0.0856197452720667
  0.8000007531049187  0.9259729324044896  0.9143802547279334
  0.8000007531049187  0.4259729324044897  0.5856197452720666
  0.1999992468950813  0.5740270675955104  0.4143802547279333
  0.8000007531049187  0.5740270675955104  0.4143802547279333
  0.1999992468950813  0.4259729324044897  0.5856197452720666
  0.1999992468950813  0.9259729324044896  0.9143802547279334
  0.8000007531049187  0.0740270675955103  0.0856197452720667
  0.0000000000000000  0.6182171731842933  0.1841486892255164
  0.0000000000000000  0.3817828268157067  0.8158512807744810
  0.0000000000000000  0.8817828268157067  0.6841487192255190
  0.0000000000000000  0.1182171731842932  0.3158513107744835
  0.5000000000000000  0.1182171731842932  0.1841486892255164
  0.5000000000000000  0.8817828268157067  0.8158512807744810
  0.5000000000000000  0.3817828268157067  0.6841487192255190
  0.5000000000000000  0.6182171731842933  0.3158513107744835
  0.0000000000000000  0.2788204559294690  0.4750837234088228
  0.0000000000000000  0.7211795440705309  0.5249162765911772
  0.0000000000000000  0.2211795440705309  0.9750837234088228
  0.0000000000000000  0.7788204559294691  0.0249162765911772
  0.5000000000000000  0.7788204559294691  0.4750837234088228
  0.5000000000000000  0.2211795440705309  0.5249162765911772
  0.5000000000000000  0.7211795440705309  0.9750837234088228
  0.5000000000000000  0.2788204559294690  0.0249162765911772
  0.0000000000000000  0.2547472582816332  0.3386959061122072
  0.0000000000000000  0.7452527417183669  0.6613040788877951
  0.0000000000000000  0.2452527417183668  0.8386959211122049
  0.0000000000000000  0.7547472582816331  0.1613040788877951
  0.5000000000000000  0.7547472582816331  0.3386959061122072
  0.5000000000000000  0.2452527417183668  0.6613040788877951
  0.5000000000000000  0.7452527417183669  0.8386959211122049
  0.5000000000000000  0.2547472582816332  0.1613040788877951
  0.7557956162623313  0.5000000000000000  0.0000000000000000
  0.2442043837376688  0.5000000000000000  0.0000000000000000
  0.2442043837376688  0.0000000000000000  0.5000000000000000
  0.7557956162623313  0.0000000000000000  0.5000000000000000
  0.2557956162623313  0.0000000000000000  0.0000000000000000
  0.7442043837376687  0.0000000000000000  0.0000000000000000
  0.7442043837376687  0.5000000000000000  0.5000000000000000
  0.2557956162623313  0.5000000000000000  0.5000000000000000
 
  0.00000000E+00  0.00000000E+00  0.00000000E+00
  0.00000000E+00  0.00000000E+00  0.00000000E+00
  0.00000000E+00  0.00000000E+00  0.00000000E+00
  0.00000000E+00  0.00000000E+00  0.00000000E+00
  0.00000000E+00  0.00000000E+00  0.00000000E+00
  0.00000000E+00  0.00000000E+00  0.00000000E+00
  0.00000000E+00  0.00000000E+00  0.00000000E+00
  0.00000000E+00  0.00000000E+00  0.00000000E+00
  0.00000000E+00  0.00000000E+00  0.00000000E+00
  0.00000000E+00  0.00000000E+00  0.00000000E+00
  0.00000000E+00  0.00000000E+00  0.00000000E+00
  0.00000000E+00  0.00000000E+00  0.00000000E+00
  0.00000000E+00  0.00000000E+00  0.00000000E+00
  0.00000000E+00  0.00000000E+00  0.00000000E+00
  0.00000000E+00  0.00000000E+00  0.00000000E+00
  0.00000000E+00  0.00000000E+00  0.00000000E+00
  0.00000000E+00  0.00000000E+00  0.00000000E+00
  0.00000000E+00  0.00000000E+00  0.00000000E+00
  0.00000000E+00  0.00000000E+00  0.00000000E+00
  0.00000000E+00  0.00000000E+00  0.00000000E+00
  0.00000000E+00  0.00000000E+00  0.00000000E+00
  0.00000000E+00  0.00000000E+00  0.00000000E+00
  0.00000000E+00  0.00000000E+00  0.00000000E+00
  0.00000000E+00  0.00000000E+00  0.00000000E+00
  0.00000000E+00  0.00000000E+00  0.00000000E+00
  0.00000000E+00  0.00000000E+00  0.00000000E+00
  0.00000000E+00  0.00000000E+00  0.00000000E+00
  0.00000000E+00  0.00000000E+00  0.00000000E+00
  0.00000000E+00  0.00000000E+00  0.00000000E+00
  0.00000000E+00  0.00000000E+00  0.00000000E+00
  0.00000000E+00  0.00000000E+00  0.00000000E+00
  0.00000000E+00  0.00000000E+00  0.00000000E+00
  0.00000000E+00  0.00000000E+00  0.00000000E+00
  0.00000000E+00  0.00000000E+00  0.00000000E+00
  0.00000000E+00  0.00000000E+00  0.00000000E+00
  0.00000000E+00  0.00000000E+00  0.00000000E+00
  0.00000000E+00  0.00000000E+00  0.00000000E+00
  0.00000000E+00  0.00000000E+00  0.00000000E+00
  0.00000000E+00  0.00000000E+00  0.00000000E+00
  0.00000000E+00  0.00000000E+00  0.00000000E+00
  0.00000000E+00  0.00000000E+00  0.00000000E+00
  0.00000000E+00  0.00000000E+00  0.00000000E+00
  0.00000000E+00  0.00000000E+00  0.00000000E+00
  0.00000000E+00  0.00000000E+00  0.00000000E+00
  0.00000000E+00  0.00000000E+00  0.00000000E+00
  0.00000000E+00  0.00000000E+00  0.00000000E+00
  0.00000000E+00  0.00000000E+00  0.00000000E+00
  0.00000000E+00  0.00000000E+00  0.00000000E+00
  0.00000000E+00  0.00000000E+00  0.00000000E+00
  0.00000000E+00  0.00000000E+00  0.00000000E+00
  0.00000000E+00  0.00000000E+00  0.00000000E+00
  0.00000000E+00  0.00000000E+00  0.00000000E+00
  0.00000000E+00  0.00000000E+00  0.00000000E+00
  0.00000000E+00  0.00000000E+00  0.00000000E+00
  0.00000000E+00  0.00000000E+00  0.00000000E+00
  0.00000000E+00  0.00000000E+00  0.00000000E+00
  0.00000000E+00  0.00000000E+00  0.00000000E+00
  0.00000000E+00  0.00000000E+00  0.00000000E+00
  0.00000000E+00  0.00000000E+00  0.00000000E+00
  0.00000000E+00  0.00000000E+00  0.00000000E+00
  0.00000000E+00  0.00000000E+00  0.00000000E+00
  0.00000000E+00  0.00000000E+00  0.00000000E+00
  0.00000000E+00  0.00000000E+00  0.00000000E+00
  0.00000000E+00  0.00000000E+00  0.00000000E+00
  0.00000000E+00  0.00000000E+00  0.00000000E+00
  0.00000000E+00  0.00000000E+00  0.00000000E+00
  0.00000000E+00  0.00000000E+00  0.00000000E+00
  0.00000000E+00  0.00000000E+00  0.00000000E+00
  0.00000000E+00  0.00000000E+00  0.00000000E+00
  0.00000000E+00  0.00000000E+00  0.00000000E+00
  0.00000000E+00  0.00000000E+00  0.00000000E+00
  0.00000000E+00  0.00000000E+00  0.00000000E+00
  0.00000000E+00  0.00000000E+00  0.00000000E+00
  0.00000000E+00  0.00000000E+00  0.00000000E+00
  0.00000000E+00  0.00000000E+00  0.00000000E+00
  0.00000000E+00  0.00000000E+00  0.00000000E+00
  0.00000000E+00  0.00000000E+00  0.00000000E+00
  0.00000000E+00  0.00000000E+00  0.00000000E+00
  0.00000000E+00  0.00000000E+00  0.00000000E+00
  0.00000000E+00  0.00000000E+00  0.00000000E+00
