C
   1.0
     5.0520102928033417    0.0000000000000000    0.0000000000000000
     2.5260051463051219    4.3751692537664395    0.0000000000000000
     2.5260051463051219    1.4583897511911141    4.1249491307380515
  16
Direct
  0.0000000000000000  0.0000000000000000  0.0000000000000000
  0.5000000000000000  0.0000000000000000  0.0000000000000000
  0.0000000000000000  0.5000000000000000  0.0000000000000000
  0.5000000000000000  0.5000000000000000  0.0000000000000000
  0.0000000000000000  0.0000000000000000  0.5000000000000000
  0.5000000000000000  0.0000000000000000  0.5000000000000000
  0.0000000000000000  0.5000000000000000  0.5000000000000000
  0.5000000000000000  0.5000000000000000  0.5000000000000000
  0.1250000000000000  0.1250000000000000  0.1249999925000000
  0.6250000000000000  0.1250000000000000  0.1249999925000000
  0.1250000000000000  0.6250000000000000  0.1249999925000000
  0.6250000000000000  0.6250000000000000  0.1249999925000000
  0.1250000000000000  0.1250000000000000  0.6249999925000000
  0.6250000000000000  0.1250000000000000  0.6249999925000000
  0.1250000000000000  0.6250000000000000  0.6249999925000000
  0.6250000000000000  0.6250000000000000  0.6249999925000000
