C2 H4                                   
  0.972588826000000     
     4.8699998856000004    0.0000000000000000    0.0000000000000000
     0.0000000000000000    6.4600000380999996    0.0000000000000000
     0.0000000000000000    0.0000000000000000    4.1400000953999996
   C    H 
     4     8
Direct
  0.8839187291561463  0.0553867019181082  0.9634040062693588
  0.1160812858438586  0.9446132830818872  0.0365959677306389
  0.6160812708438537  0.5553867169181128  0.5365959937306412
  0.3839187291561463  0.4446132830818870  0.4634040362693614
  0.8030347629764034  0.1797823064142799  0.1270164411643693
  0.1969652220235916  0.8202177075857213  0.8729835668356313
  0.6969652370235966  0.6797822924142787  0.3729835668356313
  0.3030347629764036  0.3202177075857211  0.6270164331643687
  0.7646057611122786  0.0262822128675850  0.7360790008528773
  0.2353942088877189  0.9737177931324155  0.2639209691471202
  0.7353942388877214  0.5262822068675845  0.7639209991471227
  0.2646057911122811  0.4737177931324155  0.2360790308528798
 
  0.00000000E+00  0.00000000E+00  0.00000000E+00
  0.00000000E+00  0.00000000E+00  0.00000000E+00
  0.00000000E+00  0.00000000E+00  0.00000000E+00
  0.00000000E+00  0.00000000E+00  0.00000000E+00
  0.00000000E+00  0.00000000E+00  0.00000000E+00
  0.00000000E+00  0.00000000E+00  0.00000000E+00
  0.00000000E+00  0.00000000E+00  0.00000000E+00
  0.00000000E+00  0.00000000E+00  0.00000000E+00
  0.00000000E+00  0.00000000E+00  0.00000000E+00
  0.00000000E+00  0.00000000E+00  0.00000000E+00
  0.00000000E+00  0.00000000E+00  0.00000000E+00
  0.00000000E+00  0.00000000E+00  0.00000000E+00
