C6 H6                                   
  0.986484830000000     
     7.3550000000000004    0.0000000000000000    0.0000000000000000
     0.0000000000000000    9.3710000000000004    0.0000000000000000
     0.0000000000000000    0.0000000000000000    6.7000000000000002
   C    H 
    24    24
Direct
  0.9392766129645435  0.1433439666096228  0.0063793262902415
  0.0607233680354585  0.8566560333903775 -0.0063793002902394
  0.5607233870354565  0.8566560333903775  0.5063792972902360
  0.4392766429645388  0.1433439666096228  0.4936206737097587
  0.0607233680354585  0.6433439666096225  0.4936206737097587
  0.9392766129645435  0.3566560333903771  0.5063792972902360
  0.4392766429645388  0.3566560333903771 -0.0063793002902394
  0.5607233870354565  0.6433439666096225  0.0063793262902415
  0.0775672135432785  0.0970535585357769  0.1376961789759063
  0.9224328014567189  0.9029464184642249  0.8623037910240917
  0.4224328014567190  0.9029464184642249  0.6376962089759083
  0.5775671985432811  0.0970535585357769  0.3623038210240935
  0.9224328014567189  0.5970535815357751  0.3623038210240935
  0.0775672135432785  0.4029464484642271  0.6376962089759084
  0.5775671985432811  0.4029464484642271  0.8623037910240916
  0.4224328014567190  0.5970535815357751  0.1376961789759062
  0.8619526072304236  0.0462933759693075  0.8680265589654065
  0.1380473927695766  0.9537066020306906  0.1319734410345934
  0.6380473927695764  0.9537066020306906  0.3680265589654065
  0.3619526072304234  0.0462933759693075  0.6319734410345935
  0.1380473927695766  0.5462933979693094  0.6319734410345935
  0.8619526072304236  0.4537066310306893  0.3680265589654065
  0.3619526072304234  0.4537066310306893  0.1319734410345934
  0.6380473927695764  0.5462933979693094  0.8680265589654065
  0.8922846195166596  0.2555581374822630  0.0103154134821442
  0.1077153654833425  0.7444418765177309 -0.0103153844821453
  0.6077153804833404  0.7444418765177309  0.5103153844821449
  0.3922846195166599  0.2555581374822630  0.4896845865178558
  0.1077153654833425  0.7555581234822691  0.4896845865178558
  0.8922846195166596  0.2444418765177310  0.5103153844821449
  0.3922846195166599  0.2444418765177310 -0.0103153844821453
  0.6077153804833404  0.7555581234822691  0.0103154134821442
  0.1376075886544517  0.1719086589969959  0.2462517523897172
  0.8623923973455472  0.8280913260029995  0.7537482326102852
  0.3623923973455471  0.8280913260029995  0.7462517673897148
  0.6376076026544528  0.1719086589969959  0.2537482326102851
  0.8623923973455472  0.6719086739970005  0.2537482326102852
  0.1376075886544517  0.3280913260029993  0.7462517673897148
  0.6376076026544528  0.3280913260029993  0.7537482326102852
  0.3623923973455471  0.6719086739970005  0.2462517523897172
  0.7527306976215412  0.0814209451028367  0.7650183580930391
  0.2472692873784613  0.9185790698971675  0.2349816569069588
  0.7472693023784588  0.9185790698971676  0.2650183580930389
  0.2527306976215410  0.0814209451028367  0.7349816419069609
  0.2472692873784613  0.5814209301028324  0.7349816419069609
  0.7527306976215412  0.4185790698971681  0.2650183580930389
  0.2527306976215410  0.4185790698971681  0.2349816569069588
  0.7472693023784588  0.5814209301028324  0.7650183580930391
 
  0.00000000E+00  0.00000000E+00  0.00000000E+00
  0.00000000E+00  0.00000000E+00  0.00000000E+00
  0.00000000E+00  0.00000000E+00  0.00000000E+00
  0.00000000E+00  0.00000000E+00  0.00000000E+00
  0.00000000E+00  0.00000000E+00  0.00000000E+00
  0.00000000E+00  0.00000000E+00  0.00000000E+00
  0.00000000E+00  0.00000000E+00  0.00000000E+00
  0.00000000E+00  0.00000000E+00  0.00000000E+00
  0.00000000E+00  0.00000000E+00  0.00000000E+00
  0.00000000E+00  0.00000000E+00  0.00000000E+00
  0.00000000E+00  0.00000000E+00  0.00000000E+00
  0.00000000E+00  0.00000000E+00  0.00000000E+00
  0.00000000E+00  0.00000000E+00  0.00000000E+00
  0.00000000E+00  0.00000000E+00  0.00000000E+00
  0.00000000E+00  0.00000000E+00  0.00000000E+00
  0.00000000E+00  0.00000000E+00  0.00000000E+00
  0.00000000E+00  0.00000000E+00  0.00000000E+00
  0.00000000E+00  0.00000000E+00  0.00000000E+00
  0.00000000E+00  0.00000000E+00  0.00000000E+00
  0.00000000E+00  0.00000000E+00  0.00000000E+00
  0.00000000E+00  0.00000000E+00  0.00000000E+00
  0.00000000E+00  0.00000000E+00  0.00000000E+00
  0.00000000E+00  0.00000000E+00  0.00000000E+00
  0.00000000E+00  0.00000000E+00  0.00000000E+00
  0.00000000E+00  0.00000000E+00  0.00000000E+00
  0.00000000E+00  0.00000000E+00  0.00000000E+00
  0.00000000E+00  0.00000000E+00  0.00000000E+00
  0.00000000E+00  0.00000000E+00  0.00000000E+00
  0.00000000E+00  0.00000000E+00  0.00000000E+00
  0.00000000E+00  0.00000000E+00  0.00000000E+00
  0.00000000E+00  0.00000000E+00  0.00000000E+00
  0.00000000E+00  0.00000000E+00  0.00000000E+00
  0.00000000E+00  0.00000000E+00  0.00000000E+00
  0.00000000E+00  0.00000000E+00  0.00000000E+00
  0.00000000E+00  0.00000000E+00  0.00000000E+00
  0.00000000E+00  0.00000000E+00  0.00000000E+00
  0.00000000E+00  0.00000000E+00  0.00000000E+00
  0.00000000E+00  0.00000000E+00  0.00000000E+00
  0.00000000E+00  0.00000000E+00  0.00000000E+00
  0.00000000E+00  0.00000000E+00  0.00000000E+00
  0.00000000E+00  0.00000000E+00  0.00000000E+00
  0.00000000E+00  0.00000000E+00  0.00000000E+00
  0.00000000E+00  0.00000000E+00  0.00000000E+00
  0.00000000E+00  0.00000000E+00  0.00000000E+00
  0.00000000E+00  0.00000000E+00  0.00000000E+00
  0.00000000E+00  0.00000000E+00  0.00000000E+00
  0.00000000E+00  0.00000000E+00  0.00000000E+00
  0.00000000E+00  0.00000000E+00  0.00000000E+00
