C6 H6                                   
  0.986484830000000     
     7.3550000000000004    0.0000000000000000    0.0000000000000000
     0.0000000000000000    9.3710000000000004    0.0000000000000000
     0.0000000000000000    0.0000000000000000    6.7000000000000002
   C    H 
    24    24
Direct
  0.9434865887878099  0.1445519111860613  0.0030975127741110
  0.0565133922121920  0.8554480888139387 -0.0030974867741088
  0.5565134112121901  0.8554480888139387  0.5030974837741048
  0.4434866187878055  0.1445519111860613  0.4969024872258893
  0.0565133922121920  0.6445519111860613  0.4969024872258893
  0.9434865887878099  0.3554480888139386  0.5030974837741048
  0.4434866187878055  0.3554480888139386 -0.0030974867741088
  0.5565134112121901  0.6445519111860613  0.0030975127741110
  0.0796876728130451  0.0965200090741916  0.1366434867825424
  0.9203123421869529  0.9034799679258101  0.8633564832174556
  0.4203123421869523  0.9034799679258101  0.6366435167825444
  0.5796876578130471  0.0965200090741916  0.3633565132174576
  0.9203123421869528  0.5965200320741899  0.3633565132174576
  0.0796876728130451  0.4034799979258125  0.6366435167825445
  0.5796876578130472  0.4034799979258125  0.8633564832174556
  0.4203123421869523  0.5965200320741899  0.1366434867825424
  0.8634603668913700  0.0478572040847495  0.8663097949654274
  0.1365396331086302  0.9521427739152489  0.1336902050345725
  0.6365396331086300  0.9521427739152489  0.3663097949654274
  0.3634603668913698  0.0478572040847495  0.6336902050345726
  0.1365396331086302  0.5478572260847511  0.6336902050345726
  0.8634603668913700  0.4521428029152476  0.3663097949654274
  0.3634603668913698  0.4521428029152476  0.1336902050345725
  0.6365396331086300  0.5478572260847511  0.8663097949654274
  0.8997329797385542  0.2573829753209509  0.0056890821085894
  0.1002670052614481  0.7426170386790434 -0.0056890531085906
  0.6002670202614458  0.7426170386790434  0.5056890531085906
  0.3997329797385543  0.2573829753209509  0.4943109178914107
  0.1002670052614481  0.7573829613209566  0.4943109178914107
  0.8997329797385542  0.2426170386790432  0.5056890531085906
  0.3997329797385543  0.2426170386790432 -0.0056890531085906
  0.6002670202614458  0.7573829613209566  0.0056890821085894
  0.1416149709657053  0.1712558854163979  0.2443549401275588
  0.8583850150342934  0.8287440995835971  0.7556450448724437
  0.3583850150342935  0.8287440995835971  0.7443549551275563
  0.6416149849657066  0.1712558854163979  0.2556450448724435
  0.8583850150342934  0.6712559004164029  0.2556450448724435
  0.1416149709657053  0.3287440995835973  0.7443549551275563
  0.6416149849657066  0.3287440995835973  0.7556450448724437
  0.3583850150342935  0.6712559004164029  0.2443549401275587
  0.7564952052271323  0.0839381540999426  0.7619978399540500
  0.2435047797728699  0.9160618609000625  0.2380021750459481
  0.7435047947728677  0.9160618609000625  0.2619978399540495
  0.2564952052271326  0.0839381540999426  0.7380021600459500
  0.2435047797728699  0.5839381390999375  0.7380021600459500
  0.7564952052271322  0.4160618609000623  0.2619978399540495
  0.2564952052271326  0.4160618609000623  0.2380021750459481
  0.7435047947728677  0.5839381390999375  0.7619978399540500
 
  0.00000000E+00  0.00000000E+00  0.00000000E+00
  0.00000000E+00  0.00000000E+00  0.00000000E+00
  0.00000000E+00  0.00000000E+00  0.00000000E+00
  0.00000000E+00  0.00000000E+00  0.00000000E+00
  0.00000000E+00  0.00000000E+00  0.00000000E+00
  0.00000000E+00  0.00000000E+00  0.00000000E+00
  0.00000000E+00  0.00000000E+00  0.00000000E+00
  0.00000000E+00  0.00000000E+00  0.00000000E+00
  0.00000000E+00  0.00000000E+00  0.00000000E+00
  0.00000000E+00  0.00000000E+00  0.00000000E+00
  0.00000000E+00  0.00000000E+00  0.00000000E+00
  0.00000000E+00  0.00000000E+00  0.00000000E+00
  0.00000000E+00  0.00000000E+00  0.00000000E+00
  0.00000000E+00  0.00000000E+00  0.00000000E+00
  0.00000000E+00  0.00000000E+00  0.00000000E+00
  0.00000000E+00  0.00000000E+00  0.00000000E+00
  0.00000000E+00  0.00000000E+00  0.00000000E+00
  0.00000000E+00  0.00000000E+00  0.00000000E+00
  0.00000000E+00  0.00000000E+00  0.00000000E+00
  0.00000000E+00  0.00000000E+00  0.00000000E+00
  0.00000000E+00  0.00000000E+00  0.00000000E+00
  0.00000000E+00  0.00000000E+00  0.00000000E+00
  0.00000000E+00  0.00000000E+00  0.00000000E+00
  0.00000000E+00  0.00000000E+00  0.00000000E+00
  0.00000000E+00  0.00000000E+00  0.00000000E+00
  0.00000000E+00  0.00000000E+00  0.00000000E+00
  0.00000000E+00  0.00000000E+00  0.00000000E+00
  0.00000000E+00  0.00000000E+00  0.00000000E+00
  0.00000000E+00  0.00000000E+00  0.00000000E+00
  0.00000000E+00  0.00000000E+00  0.00000000E+00
  0.00000000E+00  0.00000000E+00  0.00000000E+00
  0.00000000E+00  0.00000000E+00  0.00000000E+00
  0.00000000E+00  0.00000000E+00  0.00000000E+00
  0.00000000E+00  0.00000000E+00  0.00000000E+00
  0.00000000E+00  0.00000000E+00  0.00000000E+00
  0.00000000E+00  0.00000000E+00  0.00000000E+00
  0.00000000E+00  0.00000000E+00  0.00000000E+00
  0.00000000E+00  0.00000000E+00  0.00000000E+00
  0.00000000E+00  0.00000000E+00  0.00000000E+00
  0.00000000E+00  0.00000000E+00  0.00000000E+00
  0.00000000E+00  0.00000000E+00  0.00000000E+00
  0.00000000E+00  0.00000000E+00  0.00000000E+00
  0.00000000E+00  0.00000000E+00  0.00000000E+00
  0.00000000E+00  0.00000000E+00  0.00000000E+00
  0.00000000E+00  0.00000000E+00  0.00000000E+00
  0.00000000E+00  0.00000000E+00  0.00000000E+00
  0.00000000E+00  0.00000000E+00  0.00000000E+00
  0.00000000E+00  0.00000000E+00  0.00000000E+00
