C6 H6                                   
  0.993288388000000     
     7.3550000000000004    0.0000000000000000    0.0000000000000000
     0.0000000000000000    9.3710000000000004    0.0000000000000000
     0.0000000000000000    0.0000000000000000    6.7000000000000002
   C    H 
    24    24
Direct
  0.9489348507808057  0.1327680947970644  0.0013362878504869
  0.0510651302191962  0.8672319052029354 -0.0013362618504848
  0.5510651492191943  0.8672319052029354  0.5013362588504809
  0.4489348807808011  0.1327680947970644  0.4986637121495131
  0.0510651302191962  0.6327680947970646  0.4986637121495131
  0.9489348507808057  0.3672319052029356  0.5013362588504809
  0.4489348807808011  0.3672319052029355 -0.0013362618504848
  0.5510651492191943  0.6327680947970646  0.0013362878504869
  0.0728827951953110  0.0881342511319114  0.1264509806462149
  0.9271172198046866  0.9118657258680902  0.8735489893537827
  0.4271172198046867  0.9118657258680902  0.6264510106462174
  0.5728827801953134  0.0881342511319114  0.3735490193537851
  0.9271172198046866  0.5881342741319098  0.3735490193537851
  0.0728827951953110  0.4118657558680927  0.6264510106462174
  0.5728827801953134  0.4118657558680927  0.8735489893537826
  0.4271172198046867  0.5881342741319098  0.1264509806462149
  0.8741598922407526  0.0443172044866978  0.8757734117815698
  0.1258401077592473  0.9556827735133003  0.1242265882184302
  0.6258401077592474  0.9556827735133003  0.3757734117815698
  0.3741598922407527  0.0443172044866978  0.6242265882184302
  0.1258401077592473  0.5443172264866997  0.6242265882184302
  0.8741598922407526  0.4556828025132991  0.3757734117815698
  0.3741598922407527  0.4556828025132991  0.1242265882184302
  0.6258401077592474  0.5443172264866997  0.8757734117815698
  0.9085967002915082  0.2386259198882175  0.9991946481050110
  0.0914032847084941  0.7613740941117766  0.0008053808949878
  0.5914032997084918  0.7613740941117766  0.4991946191050122
  0.4085967002915082  0.2386259198882175  0.5008053518949890
  0.0914032847084941  0.7386259058882234  0.5008053518949890
  0.9085967002915082  0.2613740941117765  0.4991946191050122
  0.4085967002915082  0.2613740941117765  0.0008053808949878
  0.5914032997084918  0.7386259058882234  0.9991946481050110
  0.1304252010861692  0.1569034976216368  0.2293983987713771
  0.8695747849138298  0.8430964873783584  0.7706015862286251
  0.3695747849138297  0.8430964873783584  0.7293984137713749
  0.6304252150861702  0.1569034976216368  0.2706015862286252
  0.8695747849138298  0.6569035126216416  0.2706015862286252
  0.1304252010861692  0.3430964873783584  0.7293984137713749
  0.6304252150861702  0.3430964873783584  0.7706015862286251
  0.3695747849138297  0.6569035126216416  0.2293983987713771
  0.7741047566543923  0.0787244614865790  0.7801839570844101
  0.2258952283456101  0.9212755535134258  0.2198160579155876
  0.7258952433456077  0.9212755535134258  0.2801839570844101
  0.2741047566543922  0.0787244614865790  0.7198160429155899
  0.2258952283456101  0.5787244464865742  0.7198160429155899
  0.7741047566543923  0.4212755535134258  0.2801839570844101
  0.2741047566543923  0.4212755535134258  0.2198160579155876
  0.7258952433456077  0.5787244464865742  0.7801839570844101
 
  0.00000000E+00  0.00000000E+00  0.00000000E+00
  0.00000000E+00  0.00000000E+00  0.00000000E+00
  0.00000000E+00  0.00000000E+00  0.00000000E+00
  0.00000000E+00  0.00000000E+00  0.00000000E+00
  0.00000000E+00  0.00000000E+00  0.00000000E+00
  0.00000000E+00  0.00000000E+00  0.00000000E+00
  0.00000000E+00  0.00000000E+00  0.00000000E+00
  0.00000000E+00  0.00000000E+00  0.00000000E+00
  0.00000000E+00  0.00000000E+00  0.00000000E+00
  0.00000000E+00  0.00000000E+00  0.00000000E+00
  0.00000000E+00  0.00000000E+00  0.00000000E+00
  0.00000000E+00  0.00000000E+00  0.00000000E+00
  0.00000000E+00  0.00000000E+00  0.00000000E+00
  0.00000000E+00  0.00000000E+00  0.00000000E+00
  0.00000000E+00  0.00000000E+00  0.00000000E+00
  0.00000000E+00  0.00000000E+00  0.00000000E+00
  0.00000000E+00  0.00000000E+00  0.00000000E+00
  0.00000000E+00  0.00000000E+00  0.00000000E+00
  0.00000000E+00  0.00000000E+00  0.00000000E+00
  0.00000000E+00  0.00000000E+00  0.00000000E+00
  0.00000000E+00  0.00000000E+00  0.00000000E+00
  0.00000000E+00  0.00000000E+00  0.00000000E+00
  0.00000000E+00  0.00000000E+00  0.00000000E+00
  0.00000000E+00  0.00000000E+00  0.00000000E+00
  0.00000000E+00  0.00000000E+00  0.00000000E+00
  0.00000000E+00  0.00000000E+00  0.00000000E+00
  0.00000000E+00  0.00000000E+00  0.00000000E+00
  0.00000000E+00  0.00000000E+00  0.00000000E+00
  0.00000000E+00  0.00000000E+00  0.00000000E+00
  0.00000000E+00  0.00000000E+00  0.00000000E+00
  0.00000000E+00  0.00000000E+00  0.00000000E+00
  0.00000000E+00  0.00000000E+00  0.00000000E+00
  0.00000000E+00  0.00000000E+00  0.00000000E+00
  0.00000000E+00  0.00000000E+00  0.00000000E+00
  0.00000000E+00  0.00000000E+00  0.00000000E+00
  0.00000000E+00  0.00000000E+00  0.00000000E+00
  0.00000000E+00  0.00000000E+00  0.00000000E+00
  0.00000000E+00  0.00000000E+00  0.00000000E+00
  0.00000000E+00  0.00000000E+00  0.00000000E+00
  0.00000000E+00  0.00000000E+00  0.00000000E+00
  0.00000000E+00  0.00000000E+00  0.00000000E+00
  0.00000000E+00  0.00000000E+00  0.00000000E+00
  0.00000000E+00  0.00000000E+00  0.00000000E+00
  0.00000000E+00  0.00000000E+00  0.00000000E+00
  0.00000000E+00  0.00000000E+00  0.00000000E+00
  0.00000000E+00  0.00000000E+00  0.00000000E+00
  0.00000000E+00  0.00000000E+00  0.00000000E+00
  0.00000000E+00  0.00000000E+00  0.00000000E+00
