B4C B11C-CBC
0
G            # Gamma centered Monkhorst-Pack grids
8   8   8    # 
0.0 0.0 0.0  # No shift

