Gamma-Point Only for Molecules # Generates Automatically the K-mesh
  1            # One k-point
rec            # Units of reciprocal lattice
  0  0  0  1   # Three coordinates and weight
