C6 H6                                   
0.98648483
     7.3550000000000004    0.0000000000000000    0.0000000000000000
     0.0000000000000000    9.3710000000000004    0.0000000000000000
     0.0000000000000000    0.0000000000000000    6.7000000000000002
   C    H 
    24    24
Direct
  0.9447188054231722  0.1427398637129788  0.0025638888881594
  0.0552811755768301  0.8572601362870211 -0.0025638628881573
  0.5552811945768278  0.8572601362870211  0.5025638598881536
  0.4447188354231671  0.1427398637129788  0.4974361111118404
  0.0552811755768301  0.6427398637129789  0.4974361111118404
  0.9447188054231722  0.3572601362870212  0.5025638598881536
  0.4447188354231671  0.3572601362870214 -0.0025638628881573
  0.5552811945768278  0.6427398637129789  0.0025638888881594
  0.0785757663086563  0.0952148294232906  0.1349472783829066
  0.9214242486913418  0.9047851475767110  0.8650526916170910
  0.4214242486913413  0.9047851475767110  0.6349473083829090
  0.5785757513086582  0.0952148294232906  0.3650527216170933
  0.9214242486913418  0.5952148524232890  0.3650527216170934
  0.0785757663086563  0.4047851775767136  0.6349473083829090
  0.5785757513086582  0.4047851775767136  0.8650526916170910
  0.4214242486913413  0.5952148524232890  0.1349472783829066
  0.8657491114443114  0.0473782563178566  0.8675339899108596
  0.1342508885556885  0.9526217216821418  0.1324660100891406
  0.6342508885556886  0.9526217216821418  0.3675339899108593
  0.3657491114443115  0.0473782563178566  0.6324660100891404
  0.1342508885556885  0.5473782783178582  0.6324660100891404
  0.8657491114443114  0.4526217506821404  0.3675339899108593
  0.3657491114443115  0.4526217506821404  0.1324660100891406
  0.6342508885556886  0.5473782783178582  0.8675339899108596
  0.9020058225568260  0.2541704358641084  0.0048405302284549
  0.0979941624431764  0.7458295781358862 -0.0048405012284560
  0.5979941774431740  0.7458295781358862  0.5048405012284561
  0.4020058225568259  0.2541704358641084  0.4951594697715451
  0.0979941624431764  0.7541704218641138  0.4951594697715451
  0.9020058225568260  0.2458295781358858  0.5048405012284561
  0.4020058225568259  0.2458295781358858 -0.0048405012284560
  0.5979941774431740  0.7541704218641138  0.0048405302284549
  0.1394944180798310  0.1690532283686668  0.2412076251027470
  0.8605055679201679  0.8309467566313286  0.7587923598972556
  0.3605055679201679  0.8309467566313286  0.7412076401027444
  0.6394944320798321  0.1690532283686668  0.2587923598972554
  0.8605055679201679  0.6690532433686714  0.2587923598972554
  0.1394944180798310  0.3309467566313286  0.7412076401027444
  0.6394944320798321  0.3309467566313286  0.7587923598972556
  0.3605055679201679  0.6690532433686714  0.2412076251027470
  0.7605924518748999  0.0830578105947133  0.7641546601863163
  0.2394075331251025  0.9169422044052916  0.2358453548136811
  0.7394075481251001  0.9169422044052916  0.2641546601863165
  0.2605924518748998  0.0830578105947133  0.7358453398136837
  0.2394075331251025  0.5830577955947084  0.7358453398136837
  0.7605924518748999  0.4169422044052914  0.2641546601863165
  0.2605924518748998  0.4169422044052914  0.2358453548136811
  0.7394075481251001  0.5830577955947084  0.7641546601863163
 
  0.00000000E+00  0.00000000E+00  0.00000000E+00
  0.00000000E+00  0.00000000E+00  0.00000000E+00
  0.00000000E+00  0.00000000E+00  0.00000000E+00
  0.00000000E+00  0.00000000E+00  0.00000000E+00
  0.00000000E+00  0.00000000E+00  0.00000000E+00
  0.00000000E+00  0.00000000E+00  0.00000000E+00
  0.00000000E+00  0.00000000E+00  0.00000000E+00
  0.00000000E+00  0.00000000E+00  0.00000000E+00
  0.00000000E+00  0.00000000E+00  0.00000000E+00
  0.00000000E+00  0.00000000E+00  0.00000000E+00
  0.00000000E+00  0.00000000E+00  0.00000000E+00
  0.00000000E+00  0.00000000E+00  0.00000000E+00
  0.00000000E+00  0.00000000E+00  0.00000000E+00
  0.00000000E+00  0.00000000E+00  0.00000000E+00
  0.00000000E+00  0.00000000E+00  0.00000000E+00
  0.00000000E+00  0.00000000E+00  0.00000000E+00
  0.00000000E+00  0.00000000E+00  0.00000000E+00
  0.00000000E+00  0.00000000E+00  0.00000000E+00
  0.00000000E+00  0.00000000E+00  0.00000000E+00
  0.00000000E+00  0.00000000E+00  0.00000000E+00
  0.00000000E+00  0.00000000E+00  0.00000000E+00
  0.00000000E+00  0.00000000E+00  0.00000000E+00
  0.00000000E+00  0.00000000E+00  0.00000000E+00
  0.00000000E+00  0.00000000E+00  0.00000000E+00
  0.00000000E+00  0.00000000E+00  0.00000000E+00
  0.00000000E+00  0.00000000E+00  0.00000000E+00
  0.00000000E+00  0.00000000E+00  0.00000000E+00
  0.00000000E+00  0.00000000E+00  0.00000000E+00
  0.00000000E+00  0.00000000E+00  0.00000000E+00
  0.00000000E+00  0.00000000E+00  0.00000000E+00
  0.00000000E+00  0.00000000E+00  0.00000000E+00
  0.00000000E+00  0.00000000E+00  0.00000000E+00
  0.00000000E+00  0.00000000E+00  0.00000000E+00
  0.00000000E+00  0.00000000E+00  0.00000000E+00
  0.00000000E+00  0.00000000E+00  0.00000000E+00
  0.00000000E+00  0.00000000E+00  0.00000000E+00
  0.00000000E+00  0.00000000E+00  0.00000000E+00
  0.00000000E+00  0.00000000E+00  0.00000000E+00
  0.00000000E+00  0.00000000E+00  0.00000000E+00
  0.00000000E+00  0.00000000E+00  0.00000000E+00
  0.00000000E+00  0.00000000E+00  0.00000000E+00
  0.00000000E+00  0.00000000E+00  0.00000000E+00
  0.00000000E+00  0.00000000E+00  0.00000000E+00
  0.00000000E+00  0.00000000E+00  0.00000000E+00
  0.00000000E+00  0.00000000E+00  0.00000000E+00
  0.00000000E+00  0.00000000E+00  0.00000000E+00
  0.00000000E+00  0.00000000E+00  0.00000000E+00
  0.00000000E+00  0.00000000E+00  0.00000000E+00
