C                                       
   1.00000000000000     
     4.9328746796000003    0.0000000000000000    0.0000000000000000
    -2.4697609549999999    4.2700741714000001    0.0000000000000000
     0.0000000000000000    0.0000000000000000   40.0000000000000000
   C 
    16
Direct
  0.4999214273504364  0.0003267186807534  0.0416965615270541
  0.9996733069733779  0.0003267186807534  0.0414484411500027
  0.4996733069733779  0.5003267186807534  0.0414484411500027
  0.9996733069733779  0.5003267186807534  0.0414484411500027
  0.4996733069733779  0.0003267186807534  0.5414484411499956
  0.9996733069733779  0.0003267186807534  0.5414484411499956
  0.4996733069733779  0.5003267186807534  0.5414484411499956
  0.9996733069733779  0.5003267186807534  0.5414484411499956
  0.1662924589059998  0.3337075413218855  0.0414484411500027
  0.6662924589059998  0.3337075413218855  0.0414484411500027
  0.1662924589059998  0.8337075413218855  0.0414484411500027
  0.6662924589059998  0.8337075413218855  0.0414484411500027
  0.1662924589059998  0.3337075413218855  0.5414484411499956
  0.6662924589059998  0.3337075413218855  0.5414484411499956
  0.1662924589059998  0.8337075413218855  0.5414484411499956
  0.6662924589059998  0.8337075413218855  0.5414484411499956
 
  0.00000000E+00  0.00000000E+00  0.00000000E+00
  0.00000000E+00  0.00000000E+00  0.00000000E+00
  0.00000000E+00  0.00000000E+00  0.00000000E+00
  0.00000000E+00  0.00000000E+00  0.00000000E+00
  0.00000000E+00  0.00000000E+00  0.00000000E+00
  0.00000000E+00  0.00000000E+00  0.00000000E+00
  0.00000000E+00  0.00000000E+00  0.00000000E+00
  0.00000000E+00  0.00000000E+00  0.00000000E+00
  0.00000000E+00  0.00000000E+00  0.00000000E+00
  0.00000000E+00  0.00000000E+00  0.00000000E+00
  0.00000000E+00  0.00000000E+00  0.00000000E+00
  0.00000000E+00  0.00000000E+00  0.00000000E+00
  0.00000000E+00  0.00000000E+00  0.00000000E+00
  0.00000000E+00  0.00000000E+00  0.00000000E+00
  0.00000000E+00  0.00000000E+00  0.00000000E+00
  0.00000000E+00  0.00000000E+00  0.00000000E+00
