C
   1.0
     4.9328746796000003    0.0000000000000000    0.0000000000000000
    -2.4697609549999999    4.2700741714000001    0.0000000000000000
     0.0000000000000000    0.0000000000000000   40.0000000000000000
  16
Direct
  0.4999214273504332  0.0003267186807534  0.0416965615270509
  0.9996733069733814  0.0003267186807534  0.0414484411499992
  0.4996733069733814  0.5003267186807534  0.0414484411499992
  0.9996733069733813  0.5003267186807534  0.0414484411499992
  0.4996733069733814  0.0003267186807534  0.5414484411499991
  0.9996733069733814  0.0003267186807534  0.5414484411499991
  0.4996733069733814  0.5003267186807534  0.5414484411499991
  0.9996733069733813  0.5003267186807534  0.5414484411499991
  0.1662924589060033  0.3337075413218890  0.0414484411499992
  0.6662924589060032  0.3337075413218890  0.0414484411499992
  0.1662924589060033  0.8337075413218891  0.0414484411499992
  0.6662924589060033  0.8337075413218891  0.0414484411499992
  0.1662924589060033  0.3337075413218890  0.5414484411499991
  0.6662924589060032  0.3337075413218890  0.5414484411499991
  0.1662924589060033  0.8337075413218891  0.5414484411499991
  0.6662924589060033  0.8337075413218891  0.5414484411499991
