CIF file                                
   1.00000000000000     
     2.4664373398000001    0.0000000000000000    0.0000000000000000
    -1.2348804775000000    2.1350370857000001    0.0000000000000000
     0.0000000000000000    0.0000000000000000   20.0000000000000000
   C 
     2
Direct
  0.9993466139467628  0.0006534373615068  0.0828968822999983
  0.3325849178120066  0.6674150826437781  0.0828968822999983
 
  0.00000000E+00  0.00000000E+00  0.00000000E+00
  0.00000000E+00  0.00000000E+00  0.00000000E+00
