C
   1.0
     5.1257726726381110    0.0000000000000000    0.0000000000000000
     2.5628863362210970    4.4390493485472140    0.0000000000000000
     2.5628863362210970    1.4796831161170989    4.1851758616720787
  16
Direct
  0.0019509253801639  0.0000000000000000  0.0000000000000000
  0.4999999999999999  0.0000000000000000  0.0000000000000000
  0.0000000000000000  0.5000000000000000  0.0000000000000000
  0.4999999999999999  0.5000000000000000  0.0000000000000000
  0.0000000000000000  0.0000000000000000  0.5000000000000000
  0.5000000000000000  0.0000000000000000  0.5000000000000000
  0.0000000000000001  0.5000000000000000  0.5000000000000000
  0.5000000000000001  0.5000000000000000  0.5000000000000000
  0.1250000000000000  0.1250000000000000  0.1249999925000000
  0.6250000000000001  0.1250000000000000  0.1249999925000000
  0.1250000000000000  0.6250000000000000  0.1249999925000000
  0.6250000000000000  0.6250000000000000  0.1249999925000000
  0.1250000000000001  0.1249999999999999  0.6249999925000000
  0.6250000000000000  0.1249999999999999  0.6249999925000000
  0.1249999999999999  0.6250000000000000  0.6249999925000000
  0.6249999999999998  0.6250000000000000  0.6249999925000000
