CIF file                                
   1.00000000000000     
     2.4661411108786422    0.0029395190993480    0.0000000000000000
    -1.2305248571743250    2.1372106108455267   -0.0000000000000000
    -0.0000000000000000    0.0000000000000000    7.6595062155903397
   C 
     4
Direct
 -0.0001813769458997  0.0001814232855072  0.2500000000000000
  0.0001814232855074 -0.0001813769458995  0.7500000000000000
  0.3326204938272858  0.6673794888331055  0.2500000000000000
  0.6673794888331053  0.3326204938272855  0.7500000000000000
 
  0.00000000E+00  0.00000000E+00  0.00000000E+00
  0.00000000E+00  0.00000000E+00  0.00000000E+00
  0.00000000E+00  0.00000000E+00  0.00000000E+00
  0.00000000E+00  0.00000000E+00  0.00000000E+00
