CIF file                                
   1.00000000000000     
     2.4649450455710773    0.0000002956870361   -0.0000000000000000
    -1.2324722666629773    2.1347051761987519    0.0000000000000000
     0.0000000000000000    0.0000000000000000    6.7162256181224977
   C 
     4
Direct
  0.9999985875135202  0.0000014588260909  0.2500000000000000
  0.0000014588260909  0.9999985875135202  0.7500000000000000
  0.3333316413253201  0.6666683413350676  0.2500000000000000
  0.6666683413350676  0.3333316413253201  0.7500000000000000
 
  0.00000000E+00  0.00000000E+00  0.00000000E+00
  0.00000000E+00  0.00000000E+00  0.00000000E+00
  0.00000000E+00  0.00000000E+00  0.00000000E+00
  0.00000000E+00  0.00000000E+00  0.00000000E+00
